LAMMPS (22 Jul 2025 - Update 1)
# LAMMPS input script: Speed of Sound Experiment
# Measures oscillation frequency of released divider wall

units           lj
dimension       2
atom_style      atomic
atom_modify     map yes
boundary        f f p

neighbor        0.3 bin
neigh_modify    delay 0 every 1 check yes

# ============================================================================
# PARAMETERS
# ============================================================================

variable        L0 equal 10.0           # Half box width
variable        H equal 10.0            # Box height
variable        T equal 0.5             # Temperature (reduced for stability)
variable        dt equal 0.0001         # Timestep

variable        pmass equal 1.0
variable        wmass equal 20.0        # Wall mass

variable        hold_steps equal 20000  # Equilibration
variable        run_steps equal 200000  # Measurement
variable        thermo_freq equal 100
variable        dump_freq equal 500

# ============================================================================
# BOX AND PARTICLES
# ============================================================================

region          box block -${L0} ${L0} -$(v_H/2) $(v_H/2) -0.5 0.5
region          box block -10 ${L0} -$(v_H/2) $(v_H/2) -0.5 0.5
region          box block -10 10 -$(v_H/2) $(v_H/2) -0.5 0.5
region          box block -10 10 -5 $(v_H/2) -0.5 0.5
region          box block -10 10 -5 5 -0.5 0.5
create_box      2 box
Created orthogonal box = (-10 -5 -0.5) to (10 5 0.5)
  1 by 1 by 1 MPI processor grid

# Create particles on lattice to avoid overlaps
lattice         sq 0.8                  # 2D square lattice
Lattice spacing in x,y,z = 1.118034 1.118034 1.118034
region          left_fill block -$(v_L0-0.5) -0.6 -$(v_H/2-0.5) $(v_H/2-0.5) -0.5 0.5
region          left_fill block -9.5 -0.6 -$(v_H/2-0.5) $(v_H/2-0.5) -0.5 0.5
region          left_fill block -9.5 -0.6 -4.5 $(v_H/2-0.5) -0.5 0.5
region          left_fill block -9.5 -0.6 -4.5 4.5 -0.5 0.5
region          right_fill block 0.6 $(v_L0-0.5) -$(v_H/2-0.5) $(v_H/2-0.5) -0.5 0.5
region          right_fill block 0.6 9.5 -$(v_H/2-0.5) $(v_H/2-0.5) -0.5 0.5
region          right_fill block 0.6 9.5 -4.5 $(v_H/2-0.5) -0.5 0.5
region          right_fill block 0.6 9.5 -4.5 4.5 -0.5 0.5

create_atoms    1 region left_fill
Created 72 atoms
  using lattice units in orthogonal box = (-10 -5 -0.5) to (10 5 0.5)
  create_atoms CPU = 0.000 seconds
create_atoms    1 region right_fill
Created 72 atoms
  using lattice units in orthogonal box = (-10 -5 -0.5) to (10 5 0.5)
  create_atoms CPU = 0.000 seconds

mass            1 ${pmass}
mass            1 1

# Wall at center
create_atoms    2 single 0.0 0.0 0.0
Created 1 atoms
  using lattice units in orthogonal box = (-10 -5 -0.5) to (10 5 0.5)
  create_atoms CPU = 0.000 seconds
mass            2 ${wmass}
mass            2 20

group           particles type 1
144 atoms in group particles
group           wall_atom type 2
1 atoms in group wall_atom

# ============================================================================
# POTENTIALS (softer WCA for stability)
# ============================================================================

pair_style      lj/cut 1.122462
pair_modify     shift yes

# Softer epsilon for numerical stability
pair_coeff      1 1 0.5 1.0 1.122462
pair_coeff      1 2 0.5 1.0 1.122462
pair_coeff      2 2 0.0 1.0 1.122462

# ============================================================================
# BOUNDARY WALLS
# ============================================================================

fix             walls_y particles wall/reflect yhi EDGE ylo EDGE
fix             walls_x particles wall/reflect xhi EDGE xlo EDGE

# ============================================================================
# INITIALIZATION
# ============================================================================

velocity        particles create ${T} 4928459 dist gaussian
velocity        particles create 0.5 4928459 dist gaussian
velocity        particles scale ${T}
velocity        particles scale 0.5
velocity        wall_atom set 0.0 0.0 0.0

timestep        ${dt}
timestep        0.0001

fix             wall_yz wall_atom setforce NULL 0.0 0.0
fix             nve_p particles nve
fix             nve_w wall_atom nve

# ============================================================================
# COMPUTES
# ============================================================================

compute         temp_p particles temp
compute         ke_p particles ke
compute         ke_w wall_atom ke

variable        wall_x equal x[$(count(particles)+1)]
variable        wall_x equal x[145]
variable        wall_vx equal vx[$(count(particles)+1)]
variable        wall_vx equal vx[145]
variable        ke_total equal c_ke_p+c_ke_w

region          left_side block -${L0} 0.0 -$(v_H/2) $(v_H/2) -0.5 0.5
region          left_side block -10 0.0 -$(v_H/2) $(v_H/2) -0.5 0.5
region          left_side block -10 0.0 -5 $(v_H/2) -0.5 0.5
region          left_side block -10 0.0 -5 5 -0.5 0.5
region          right_side block 0.0 ${L0} -$(v_H/2) $(v_H/2) -0.5 0.5
region          right_side block 0.0 10 -$(v_H/2) $(v_H/2) -0.5 0.5
region          right_side block 0.0 10 -5 $(v_H/2) -0.5 0.5
region          right_side block 0.0 10 -5 5 -0.5 0.5

group           left_p dynamic particles region left_side every 100
dynamic group left_p defined
group           right_p dynamic particles region right_side every 100
dynamic group right_p defined

variable        n_left equal count(left_p)
variable        n_right equal count(right_p)

# ============================================================================
# OUTPUT
# ============================================================================

thermo_style    custom step temp c_temp_p c_ke_p c_ke_w v_ke_total                 v_wall_x v_wall_vx v_n_left v_n_right atoms

thermo          ${thermo_freq}
thermo          100

dump            traj all atom ${dump_freq} traj_speed_of_sound.lammpstrj
dump            traj all atom 500 traj_speed_of_sound.lammpstrj

# High-frequency wall logging
fix             wall_log all print 20                 "$(step) ${wall_x} ${wall_vx} ${n_left} ${n_right}"                 file wall_oscillation.dat screen no                 title "# Step WallX WallVx NLeft NRight"

# ============================================================================
# RUN
# ============================================================================

print           "Phase 1: Equilibration with wall fixed..."
Phase 1: Equilibration with wall fixed...
fix             hold_wall wall_atom setforce 0.0 NULL NULL
run             ${hold_steps}
run             20000
Generated 0 of 1 mixed pair_coeff terms from geometric mixing rule
Neighbor list info ...
  update: every = 1 steps, delay = 0 steps, check = yes
  max neighbors/atom: 2000, page size: 100000
  master list distance cutoff = 1.422462
  ghost atom cutoff = 1.422462
  binsize = 0.711231, bins = 29 15 2
  1 neighbor lists, perpetual/occasional/extra = 1 0 0
  (1) pair lj/cut, perpetual
      attributes: half, newton on
      pair build: half/bin/atomonly/newton
      stencil: half/bin/2d
      bin: standard
Per MPI rank memory allocation (min/avg/max) = 3.039 | 3.039 | 3.039 Mbytes
   Step          Temp         c_temp_p        c_ke_p         c_ke_w       v_ke_total      v_wall_x      v_wall_vx       v_n_left      v_n_right       Atoms   
         0   0.49652778     0.5            0.49310345     0              71.5           0              0              72             72                   145 
       100   0.49434671     0.49780368     0.49093742     0              71.185926      0              0              72             72                   145 
       200   0.48848869     0.49190469     0.4851198      0              70.342371      0              0              72             72                   145 
       300   0.47814721     0.4814909      0.47484964     0              68.853198      0              0              72             72                   145 
       400   0.46234895     0.46558216     0.45916033     0              66.578248      0              0              72             72                   145 
       500   0.44075006     0.44383223     0.4377104      0              63.468009      0              0              72             72                   145 
       600   0.41476429     0.41766474     0.41190385     0              59.726058      0              0              72             72                   145 
       700   0.38811534     0.39082943     0.38543868     0              55.888608      0              0              72             72                   145 
       800   0.36486722     0.36741873     0.36235089     0              52.540879      0              0              72             72                   145 
       900   0.34649563     0.34891867     0.344106       0              49.89537       0              0              72             72                   145 
      1000   0.33232468     0.33464863     0.33003279     0              47.854754      0              0              72             72                   145 
      1100   0.32184684     0.32409751     0.3196272      0              46.345944      0              0              72             72                   145 
      1200   0.31528157     0.31748634     0.31310722     0              45.400546      0              0              72             72                   145 
      1300   0.31287761     0.31506557     0.31071984     0              45.054376      0              0              72             72                   145 
      1400   0.31437091     0.3165693      0.31220283     0              45.26941       0              0              72             72                   145 
      1500   0.31889344     0.32112346     0.31669417     0              45.920655      0              0              72             72                   145 
      1600   0.32524732     0.32752178     0.32300424     0              46.835614      0              0              72             72                   145 
      1700   0.33230308     0.33462687     0.33001133     0              47.851643      0              0              72             72                   145 
      1800   0.33909961     0.34147094     0.336761       0              48.830344      0              0              72             72                   145 
      1900   0.34511075     0.34752411     0.34273067     0              49.695947      0              0              72             72                   145 
      2000   0.35042683     0.35287737     0.3480101      0              50.461464      0              0              72             72                   145 
      2100   0.35544196     0.35792757     0.35299064     0              51.183642      0              0              72             72                   145 
      2200   0.36041728     0.36293768     0.35793164     0              51.900088      0              0              72             72                   145 
      2300   0.36165281     0.36418185     0.35915865     0              52.078005      0              0              72             72                   145 
      2400   0.36178736     0.36431735     0.35929228     0              52.09738       0              0              72             72                   145 
      2500   0.36361513     0.36615789     0.36110744     0              52.360578      0              0              72             72                   145 
      2600   0.36750465     0.37007461     0.36497013     0              52.920669      0              0              72             72                   145 
      2700   0.37249926     0.37510415     0.3699303      0              53.639894      0              0              72             72                   145 
      2800   0.37705818     0.37969495     0.37445778     0              54.296378      0              0              72             72                   145 
      2900   0.38013831     0.38279662     0.37751667     0              54.739917      0              0              72             72                   145 
      3000   0.3814955      0.3841633      0.3788645      0              54.935352      0              0              72             72                   145 
      3100   0.3813607      0.38402756     0.37873063     0              54.915941      0              0              72             72                   145 
      3200   0.38097697     0.38364114     0.37834954     0              54.860683      0              0              72             72                   145 
      3300   0.38124103     0.38390705     0.37861178     0              54.898708      0              0              72             72                   145 
      3400   0.38237263     0.38504656     0.37973557     0              55.061658      0              0              72             72                   145 
      3500   0.38394668     0.38663163     0.38129878     0              55.288323      0              0              72             72                   145 
      3600   0.38528745     0.38798176     0.38263029     0              55.481392      0              0              72             72                   145 
      3700   0.38568141     0.38837848     0.38302154     0              55.538123      0              0              72             72                   145 
      3800   0.38467201     0.38736202     0.38201909     0              55.392769      0              0              72             72                   145 
      3900   0.38235572     0.38502953     0.37971878     0              55.059223      0              0              72             72                   145 
      4000   0.37970346     0.38235873     0.37708481     0              54.677298      0              0              72             72                   145 
      4100   0.37846583     0.38111244     0.37585572     0              54.499079      0              0              72             72                   145 
      4200   0.37996928     0.38262641     0.3773488      0              54.715577      0              0              72             72                   145 
      4300   0.38405311     0.3867388      0.38140447     0              55.303649      0              0              72             72                   145 
      4400   0.38965465     0.39237951     0.38696738     0              56.11027       0              0              72             72                   145 
      4500   0.39594032     0.39870914     0.3932097      0              57.015407      0              0              72             72                   145 
      4600   0.40243339     0.40524761     0.39965799     0              57.950408      0              0              72             72                   145 
      4700   0.40854976     0.41140676     0.40573218     0              58.831166      0              0              72             72                   145 
      4800   0.41366123     0.41655396     0.41080839     0              59.567217      0              0              72             72                   145 
      4900   0.41729593     0.42021409     0.41441803     0              60.090614      0              0              72             72                   145 
      5000   0.41931505     0.42224733     0.41642323     0              60.381368      0              0              72             72                   145 
      5100   0.41999842     0.42293547     0.41710187     0              60.479772      0              0              72             72                   145 
      5200   0.41968854     0.42262342     0.41679413     0              60.435149      0              0              72             72                   145 
      5300   0.4187693      0.42169776     0.41588124     0              60.302779      0              0              72             72                   145 
      5400   0.41763448     0.420555       0.41475424     0              60.139365      0              0              72             72                   145 
      5500   0.41686388     0.41977901     0.41398896     0              60.028399      0              0              72             72                   145 
      5600   0.41687633     0.41979155     0.41400132     0              60.030192      0              0              72             72                   145 
      5700   0.41746161     0.42038092     0.41458256     0              60.114472      0              0              72             72                   145 
      5800   0.41819222     0.42111664     0.41530814     0              60.21968       0              0              72             72                   145 
      5900   0.41882455     0.42175339     0.4159361      0              60.310735      0              0              72             72                   145 
      6000   0.41923376     0.42216547     0.4163425      0              60.369662      0              0              72             72                   145 
      6100   0.41954075     0.4224746      0.41664736     0              60.413867      0              0              72             72                   145 
      6200   0.41970181     0.42263679     0.41680731     0              60.437061      0              0              72             72                   145 
      6300   0.41926482     0.42219674     0.41637334     0              60.374134      0              0              72             72                   145 
      6400   0.41778398     0.42070555     0.41490271     0              60.160893      0              0              72             72                   145 
      6500   0.41523909     0.41814286     0.41237537     0              59.794429      0              0              72             72                   145 
      6600   0.41224801     0.41513086     0.40940492     0              59.363713      0              0              72             72                   145 
      6700   0.40999318     0.41286027     0.40716564     0              59.039018      0              0              72             72                   145 
      6800   0.40907071     0.41193135     0.40624953     0              58.906182      0              0              72             72                   145 
      6900   0.40927155     0.41213359     0.40644898     0              58.935103      0              0              72             72                   145 
      7000   0.40988658     0.41275292     0.40705977     0              59.023667      0              0              72             72                   145 
      7100   0.41005727     0.4129248      0.40722929     0              59.048246      0              0              72             72                   145 
      7200   0.40916847     0.41202979     0.40634662     0              58.92026       0              0              72             72                   145 
      7300   0.40686482     0.40971003     0.40405886     0              58.588534      0              0              72             72                   145 
      7400   0.40331803     0.40613843     0.40053652     0              58.077796      0              0              72             72                   145 
      7500   0.39962063     0.40241518     0.39686462     0              57.54537       0              0              72             72                   145 
      7600   0.39774288     0.4005243      0.39499982     0              57.274975      0              0              72             72                   145 
      7700   0.40002706     0.40282445     0.39726825     0              57.603897      0              0              72             72                   145 
      7800   0.40744823     0.41029752     0.40463824     0              58.672545      0              0              72             72                   145 
      7900   0.41811578     0.42103966     0.41523222     0              60.208672      0              0              72             72                   145 
      8000   0.42870383     0.43170176     0.42574725     0              61.733351      0              0              72             72                   145 
      8100   0.43680302     0.43985759     0.43379058     0              62.899635      0              0              72             72                   145 
      8200   0.44159703     0.44468512     0.43855154     0              63.589973      0              0              72             72                   145 
      8300   0.4431866      0.44628581     0.44013014     0              63.818871      0              0              72             72                   145 
      8400   0.44194836     0.44503891     0.43890044     0              63.640564      0              0              72             72                   145 
      8500   0.43828827     0.44135322     0.43526559     0              63.113511      0              0              72             72                   145 
      8600   0.43324857     0.43627828     0.43026065     0              62.387795      0              0              72             72                   145 
      8700   0.42735523     0.43034373     0.42440795     0              61.539153      0              0              72             72                   145 
      8800   0.420876       0.42381919     0.41797341     0              60.606144      0              0              72             72                   145 
      8900   0.41419849     0.41709498     0.41134195     0              59.644582      0              0              72             72                   145 
      9000   0.40744127     0.41029051     0.40463133     0              58.671542      0              0              72             72                   145 
      9100   0.40263936     0.40545502     0.39986254     0              57.980069      0              0              72             72                   145 
      9200   0.40128735     0.40409356     0.39851986     0              57.785379      0              0              72             72                   145 
      9300   0.4031263      0.40594537     0.40034612     0              58.050188      0              0              72             72                   145 
      9400   0.40619395     0.40903447     0.40339261     0              58.491929      0              0              72             72                   145 
      9500   0.40847188     0.41132833     0.40565483     0              58.819951      0              0              72             72                   145 
      9600   0.40924625     0.41210812     0.40642387     0              58.931461      0              0              72             72                   145 
      9700   0.40899772     0.41185784     0.40617704     0              58.895671      0              0              72             72                   145 
      9800   0.40879585     0.41165457     0.40597657     0              58.866603      0              0              72             72                   145 
      9900   0.40965566     0.41252039     0.40683045     0              58.990415      0              0              72             72                   145 
     10000   0.4117604      0.41463984     0.40892067     0              59.293497      0              0              72             72                   145 
     10100   0.41486081     0.41776193     0.4119997      0              59.739957      0              0              72             72                   145 
     10200   0.41814301     0.42106709     0.41525926     0              60.212593      0              0              72             72                   145 
     10300   0.42059306     0.42353427     0.41769242     0              60.565401      0              0              72             72                   145 
     10400   0.42161048     0.4245588      0.41870282     0              60.711909      0              0              72             72                   145 
     10500   0.41904724     0.42197764     0.41615725     0              60.342802      0              0              72             72                   145 
     10600   0.41521481     0.41811842     0.41235126     0              59.790933      0              0              72             72                   145 
     10700   0.41195748     0.4148383      0.40911639     0              59.321877      0              0              72             72                   145 
     10800   0.40963461     0.41249918     0.40680954     0              58.987383      0              0              72             72                   145 
     10900   0.4077952      0.41064691     0.40498282     0              58.722509      0              0              72             72                   145 
     11000   0.40605217     0.40889169     0.40325181     0              58.471512      0              0              72             72                   145 
     11100   0.40403716     0.4068626      0.4012507      0              58.181351      0              0              72             72                   145 
     11200   0.40166419     0.40447303     0.39889409     0              57.839644      0              0              72             72                   145 
     11300   0.39882952     0.40161854     0.39607898     0              57.431452      0              0              72             72                   145 
     11400   0.39613485     0.39890502     0.39340288     0              57.043418      0              0              72             72                   145 
     11500   0.39426126     0.39701833     0.39154222     0              56.773622      0              0              72             72                   145 
     11600   0.39288002     0.39562743     0.3901705      0              56.574722      0              0              72             72                   145 
     11700   0.39193576     0.39467657     0.38923276     0              56.43875       0              0              72             72                   145 
     11800   0.39201987     0.39476127     0.38931629     0              56.450861      0              0              72             72                   145 
     11900   0.39397947     0.39673457     0.39126237     0              56.733044      0              0              72             72                   145 
     12000   0.39787554     0.40065788     0.39513157     0              57.294077      0              0              72             72                   145 
     12100   0.40227188     0.40508497     0.3994976      0              57.927151      0              0              72             72                   145 
     12200   0.40507081     0.40790347     0.40227722     0              58.330197      0              0              72             72                   145 
     12300   0.40498851     0.40782059     0.40219548     0              58.318345      0              0              71             73                   145 
     12400   0.40242361     0.40523776     0.39964827     0              57.948999      0              0              71             73                   145 
     12500   0.39952829     0.40232219     0.39677292     0              57.532073      0              0              71             73                   145 
     12600   0.39869592     0.401484       0.39594629     0              57.412212      0              0              71             73                   145 
     12700   0.40072803     0.40353032     0.39796438     0              57.704836      0              0              71             73                   145 
     12800   0.40459118     0.40742049     0.4018009      0              58.26113       0              0              71             73                   145 
     12900   0.40880095     0.4116597      0.40598164     0              58.867337      0              0              72             72                   145 
     13000   0.41294982     0.41583759     0.41010189     0              59.464775      0              0              72             72                   145 
     13100   0.41640222     0.41931412     0.41353048     0              59.961919      0              0              72             72                   145 
     13200   0.41942083     0.42235384     0.41652827     0              60.3966        0              0              73             71                   145 
     13300   0.42163743     0.42458594     0.41872958     0              60.715789      0              0              73             71                   145 
     13400   0.42268554     0.42564138     0.41977047     0              60.866718      0              0              73             71                   145 
     13500   0.42233132     0.42528469     0.41941869     0              60.815711      0              0              73             71                   145 
     13600   0.42063627     0.42357779     0.41773533     0              60.571624      0              0              73             71                   145 
     13700   0.41804643     0.42096984     0.41516336     0              60.198687      0              0              73             71                   145 
     13800   0.41543223     0.41833735     0.41256718     0              59.822241      0              0              73             71                   145 
     13900   0.41356791     0.41646        0.41071572     0              59.553779      0              0              73             71                   145 
     14000   0.41264225     0.41552786     0.40979644     0              59.420484      0              0              73             71                   145 
     14100   0.41239694     0.41528083     0.40955282     0              59.385159      0              0              73             71                   145 
     14200   0.41234357     0.41522709     0.40949982     0              59.377473      0              0              73             71                   145 
     14300   0.41222979     0.41511252     0.40938683     0              59.36109       0              0              73             71                   145 
     14400   0.41191526     0.41479579     0.40907447     0              59.315798      0              0              72             72                   145 
     14500   0.4112132      0.41408882     0.40837725     0              59.214701      0              0              72             72                   145 
     14600   0.41005848     0.41292602     0.40723049     0              59.048421      0              0              72             72                   145 
     14700   0.40849891     0.41135555     0.40568168     0              58.823843      0              0              72             72                   145 
     14800   0.40661578     0.40945925     0.40381154     0              58.552673      0              0              72             72                   145 
     14900   0.40422218     0.40704891     0.40143444     0              58.207994      0              0              72             72                   145 
     15000   0.40130263     0.40410894     0.39853503     0              57.787579      0              0              72             72                   145 
     15100   0.39745887     0.4002383      0.39471778     0              57.234077      0              0              72             72                   145 
     15200   0.39288228     0.3956297      0.39017274     0              56.575048      0              0              72             72                   145 
     15300   0.38755539     0.39026557     0.3848826      0              55.807976      0              0              72             72                   145 
     15400   0.38146116     0.38412873     0.3788304      0              54.930408      0              0              72             72                   145 
     15500   0.37461561     0.3772353      0.37203205     0              53.944648      0              0              72             72                   145 
     15600   0.36737634     0.3699454      0.36484271     0              52.902193      0              0              72             72                   145 
     15700   0.36064635     0.36316835     0.35815913     0              51.933074      0              0              72             72                   145 
     15800   0.35591942     0.35840837     0.3534648      0              51.252397      0              0              72             72                   145 
     15900   0.35496659     0.35744888     0.35251855     0              51.115189      0              0              72             72                   145 
     16000   0.35923482     0.36174695     0.35675734     0              51.729814      0              0              72             72                   145 
     16100   0.36907645     0.3716574      0.36653109     0              53.147009      0              0              72             72                   145 
     16200   0.38298932     0.38566757     0.38034801     0              55.150462      0              0              72             72                   145 
     16300   0.39841503     0.40120115     0.39566734     0              57.371765      0              0              72             72                   145 
     16400   0.41247035     0.41535476     0.40962573     0              59.395731      0              0              72             72                   145 
     16500   0.42325858     0.42621843     0.42033955     0              60.949235      0              0              72             72                   145 
     16600   0.43015772     0.43316582     0.42719112     0              61.942712      0              0              72             72                   145 
     16700   0.43348908     0.43652047     0.4304995      0              62.422427      0              0              72             72                   145 
     16800   0.433918       0.4369524      0.43092547     0              62.484193      0              0              72             72                   145 
     16900   0.43231922     0.43534243     0.42933771     0              62.253967      0              0              72             72                   145 
     17000   0.42945483     0.43245801     0.42649307     0              61.841495      0              0              72             72                   145 
     17100   0.42587867     0.42885684     0.42294157     0              61.326528      0              0              72             72                   145 
     17200   0.42218573     0.42513808     0.41927411     0              60.794746      0              0              72             72                   145 
     17300   0.4187316      0.4216598      0.4158438      0              60.297351      0              0              72             72                   145 
     17400   0.41569959     0.41860658     0.4128327      0              59.860741      0              0              72             72                   145 
     17500   0.4131386      0.41602768     0.41028937     0              59.491959      0              0              72             72                   145 
     17600   0.41102376     0.41389805     0.40818911     0              59.187421      0              0              73             71                   145 
     17700   0.40942038     0.41228346     0.4065968      0              58.956535      0              0              73             71                   145 
     17800   0.40840562     0.41126161     0.40558903     0              58.81041       0              0              73             71                   145 
     17900   0.40784016     0.41069219     0.40502747     0              58.728983      0              0              73             71                   145 
     18000   0.40753014     0.41038        0.40471959     0              58.68434       0              0              73             71                   145 
     18100   0.40758194     0.41043216     0.40477103     0              58.6918        0              0              73             71                   145 
     18200   0.40857039     0.41142753     0.40575267     0              58.834137      0              0              73             71                   145 
     18300   0.41110732     0.41398219     0.40827209     0              59.199454      0              0              73             71                   145 
     18400   0.4154112      0.41831618     0.4125463      0              59.819213      0              0              73             71                   145 
     18500   0.42107047     0.42401502     0.41816653     0              60.634148      0              0              73             71                   145 
     18600   0.42725934     0.43024717     0.42431273     0              61.525346      0              0              73             71                   145 
     18700   0.43308482     0.43611338     0.43009803     0              62.364214      0              0              73             71                   145 
     18800   0.43804551     0.44110876     0.4350245      0              63.078553      0              0              73             71                   145 
     18900   0.44167275     0.44476137     0.43862673     0              63.600876      0              0              72             72                   145 
     19000   0.44370691     0.44680975     0.44064686     0              63.893795      0              0              72             72                   145 
     19100   0.4439896      0.44709442     0.4409276      0              63.934502      0              0              72             72                   145 
     19200   0.4423649      0.44545836     0.4393141      0              63.700545      0              0              72             72                   145 
     19300   0.43885972     0.44192867     0.4358331      0              63.1958        0              0              72             72                   145 
     19400   0.43407136     0.43710683     0.43107777     0              62.506277      0              0              72             72                   145 
     19500   0.42940258     0.43240539     0.42644118     0              61.833971      0              0              72             72                   145 
     19600   0.42661466     0.42959797     0.42367249     0              61.43251       0              0              72             72                   145 
     19700   0.42654401     0.42952683     0.42360232     0              61.422337      0              0              72             72                   145 
     19800   0.42790077     0.43089309     0.42494973     0              61.617711      0              0              72             72                   145 
     19900   0.42851658     0.4315132      0.42556129     0              61.706387      0              0              72             72                   145 
     20000   0.42676263     0.42974699     0.42381944     0              61.453819      0              0              72             72                   145 
Loop time of 0.0658331 on 1 procs for 20000 steps with 145 atoms

Performance: 2624820.068 tau/day, 303798.619 timesteps/s, 44.051 Matom-step/s
96.2% CPU use with 1 MPI tasks x no OpenMP threads

MPI task timing breakdown:
Section |  min time  |  avg time  |  max time  |%varavg| %total
---------------------------------------------------------------
Pair    | 0.019124   | 0.019124   | 0.019124   |   0.0 | 29.05
Neigh   | 0.00029291 | 0.00029291 | 0.00029291 |   0.0 |  0.44
Comm    | 0.00095559 | 0.00095559 | 0.00095559 |   0.0 |  1.45
Output  | 0.0031293  | 0.0031293  | 0.0031293  |   0.0 |  4.75
Modify  | 0.037625   | 0.037625   | 0.037625   |   0.0 | 57.15
Other   |            | 0.004707   |            |       |  7.15

Nlocal:            145 ave         145 max         145 min
Histogram: 1 0 0 0 0 0 0 0 0 0
Nghost:              0 ave           0 max           0 min
Histogram: 1 0 0 0 0 0 0 0 0 0
Neighs:            244 ave         244 max         244 min
Histogram: 1 0 0 0 0 0 0 0 0 0

Total # of neighbors = 244
Ave neighs/atom = 1.6827586
Neighbor list builds = 33
Dangerous builds = 0
unfix           hold_wall

print           "Phase 2: Measuring oscillations..."
Phase 2: Measuring oscillations...
run             ${run_steps}
run             200000
Generated 0 of 1 mixed pair_coeff terms from geometric mixing rule
Per MPI rank memory allocation (min/avg/max) = 4.045 | 4.045 | 4.045 Mbytes
   Step          Temp         c_temp_p        c_ke_p         c_ke_w       v_ke_total      v_wall_x      v_wall_vx       v_n_left      v_n_right       Atoms   
     20000   0.42676263     0.42974699     0.42381944     0              61.453819      0              0              72             72                   145 
     20100   0.42287084     0.42582792     0.41995443     6.0025232e-08  60.893401     -4.6903097e-06 -0.00093293401  72             72                   145 
     20200   0.41909495     0.42202545     0.41620441     2.3114149e-07  60.349672     -1.8541416e-05 -0.0018307244   72             72                   145 
     20300   0.41806186     0.42098486     0.41517818     4.9733028e-07  60.200908     -4.1160893e-05 -0.0026853844   72             72                   145 
     20400   0.41988359     0.42281899     0.416987       8.4013629e-07  60.463238     -7.208304e-05  -0.0034902688   72             72                   145 
     20500   0.42163744     0.42458469     0.41872835     1.2399347e-06  60.715791     -0.00011078285 -0.0042401714   72             72                   145 
     20600   0.4200286      0.42296416     0.41713017     1.6771138e-06  60.484118     -0.00015669056 -0.0049313437   72             72                   145 
     20700   0.4134151      0.41630395     0.41056183     2.1330803e-06  59.531774     -0.00020920603 -0.0055614444   71             73                   145 
     20800   0.40187429     0.40468198     0.39910016     2.5910312e-06  57.869898     -0.0002677123  -0.0061294333   71             73                   145 
     20900   0.38727508     0.38998022     0.38460118     3.0364731e-06  55.767612     -0.00033158795 -0.0066354246   71             73                   145 
     21000   0.37349942     0.37610779     0.3709201      3.4574982e-06  53.783916     -0.00040021773 -0.0070805172   71             73                   145 
     21100   0.36578973     0.3683438      0.3632632      3.8448504e-06  52.673721     -0.00047300159 -0.0074666144   71             73                   145 
     21200   0.36689304     0.36945447     0.36435855     4.1918252e-06  52.832597     -0.00054936177 -0.0077962469   71             73                   145 
     21300   0.37418527     0.37679739     0.37160019     4.4940438e-06  53.882679     -0.00062874825 -0.0080723996   72             72                   145 
     21400   0.38322218     0.38589724     0.38057452     4.7491503e-06  55.183995     -0.00071064244 -0.008298354    72             72                   145 
     21500   0.39222579     0.3949636      0.38951582     4.9564818e-06  56.480513     -0.0007945595  -0.0084775578   72             72                   145 
     21600   0.40069459     0.40349149     0.39792609     5.09013e-06    57.700021     -0.00088000218 -0.0085910934   72             72                   145 
     21700   0.4076103      0.4104556      0.40479415     5.0455946e-06  58.695883     -0.00096586321 -0.0085534275   72             72                   145 
     21800   0.41161429     0.41448785     0.40877077     4.7981017e-06  59.272458     -0.0010504884  -0.0083410116   72             72                   145 
     21900   0.41225256     0.41513104     0.40940509     4.3431916e-06  59.364368     -0.0011320408  -0.0079357595   72             72                   145 
     22000   0.41113427     0.41400558     0.40829516     3.699678e-06   59.203335     -0.0012085095  -0.0073242973   72             72                   145 
     22100   0.41089493     0.41376536     0.40805825     2.9209714e-06  59.16887      -0.0012778482  -0.0065080016   72             72                   145 
     22200   0.4124196      0.41530156     0.40957327     2.0636712e-06  59.388423     -0.0013379309  -0.0054702131   72             72                   145 
     22300   0.41424525     0.41714083     0.41138717     1.2143162e-06  59.651315     -0.0013864643  -0.0041961392   72             72                   145 
     22400   0.41444952     0.41734727     0.41159076     4.942361e-07   59.680731     -0.001421036   -0.0026770176   72             72                   145 
     22500   0.41202635     0.4149076      0.40918474     5.7364008e-08  59.331795     -0.0014391841  -0.0009120187   72             72                   145 
     22600   0.40705033     0.40989675     0.40424301     8.1973512e-08  58.615248     -0.0014384845   0.0010902366   72             72                   145 
     22700   0.40029771     0.40309623     0.39753628     7.5598151e-07  57.64287      -0.0014166504   0.0033108506   72             72                   145 
     22800   0.39277238     0.39551675     0.39006135     2.2570295e-06  56.559223     -0.0013716356   0.0057207454   72             72                   145 
     22900   0.38566427     0.38835642     0.38299978     4.7301868e-06  55.535654     -0.001301731    0.0082817697   72             72                   145 
     23000   0.38013321     0.3827831      0.37750333     8.2672175e-06  54.739182     -0.0012056466   0.010948728    72             72                   145 
     23100   0.37686061     0.37948293     0.37424868     1.2891453e-05  54.267928     -0.0010825683   0.013672091    72             72                   145 
     23200   0.37642776     0.37904131     0.37381316     1.8551294e-05  54.205597     -0.00093218639  0.016401029    72             72                   145 
     23300   0.3789432      0.38156768     0.37630468     2.512352e-05   54.567821     -0.00075469338  0.01908641     72             72                   145 
     23400   0.38350568     0.38615466     0.38082839     3.2425515e-05  55.224818     -0.0005507535   0.021683403    72             72                   145 
     23500   0.38872626     0.39140383     0.38600515     4.0233832e-05  55.976581     -0.00032144918  0.024153479    72             72                   145 
     23600   0.39354686     0.39624995     0.39078444     4.8305612e-05  56.670748     -6.8211073e-05  0.026465664    72             72                   145 
     23700   0.39756253     0.4002855      0.39476432     5.6399444e-05  57.249004      0.00020726065  0.028597062    72             72                   145 
     23800   0.40071244     0.40344944     0.39788462     6.4292856e-05  57.702592      0.00050307693  0.03053271     72             72                   145 
     23900   0.40302882     0.4057744      0.40017751     7.1794038e-05  58.036149      0.00081723554  0.032264742    72             72                   145 
     24000   0.40467241     0.40742244     0.40180282     7.8748201e-05  58.272827      0.0011476862   0.033791255    72             72                   145 
     24100   0.40590339     0.40865565     0.40301902     8.5040752e-05  58.450088      0.0014923857   0.035115394    72             72                   145 
     24200   0.40719686     0.40995253     0.40429801     9.0596815e-05  58.636348      0.0018493433   0.036244363    72             72                   145 
     24300   0.40875489     0.4115166      0.40584051     9.5377867e-05  58.860704      0.0022166564   0.037188427    72             72                   145 
     24400   0.41042042     0.41318973     0.40749056     9.9376534e-05  59.100541      0.0025925366   0.037959975    71             73                   145 
     24500   0.41170917     0.41448421     0.40876718     0.00010261054  59.28612       0.0029753265   0.038572695    71             73                   145 
     24600   0.41193662     0.41471071     0.40899056     0.00010511655  59.318873      0.0033635088   0.039040875    71             73                   145 
     24700   0.41067106     0.41343444     0.4077319      0.00010694445  59.136632      0.0037557101   0.039378858    71             73                   145 
     24800   0.40780751     0.41054965     0.40488689     0.0001081524   58.724282      0.0041506987   0.03960063     71             73                   145 
     24900   0.4040075      0.4067224      0.40111244     0.00010880345  58.17708       0.0045473802   0.039719643    71             73                   145 
     25000   0.40013        0.40281762     0.39726152     0.00010896899  57.61872       0.0049447933   0.039749847    71             73                   145 
     25100   0.39715721     0.39982404     0.39430923     0.00010896899  57.190638      0.0053422918   0.039749847    71             73                   145 
     25200   0.39600861     0.39866741     0.39316855     0.00010896899  57.02524       0.0057397903   0.039749847    71             73                   145 
     25300   0.39721247     0.39987968     0.3943641      0.00010896899  57.198595      0.0061372887   0.039749847    71             73                   145 
     25400   0.40055112     0.40324169     0.39767973     0.00010896899  57.679362      0.0065347872   0.039749847    71             73                   145 
     25500   0.40473442     0.40745423     0.40183417     0.00010896899  58.281756      0.0069322857   0.039749847    71             73                   145 
     25600   0.40783148     0.41057296     0.40490988     0.00010896899  58.727734      0.0073297841   0.039749847    71             73                   145 
     25700   0.40845029     0.4111961      0.40552443     0.00010896899  58.816842      0.0077272826   0.039749847    71             73                   145 
     25800   0.40654191     0.40927437     0.40362921     0.00010896899  58.542035      0.0081247811   0.039749847    71             73                   145 
     25900   0.40290804     0.40561508     0.40002039     0.00010896899  58.018757      0.0085222796   0.039749847    71             73                   145 
     26000   0.39815808     0.4008319      0.39530319     0.00010896899  57.334763      0.008919778    0.039749847    71             73                   145 
     26100   0.39290333     0.39554041     0.39008468     0.00010896899  56.578079      0.0093172765   0.039749847    71             73                   145 
     26200   0.38785809     0.39045989     0.38507423     0.00010896899  55.851564      0.009714775    0.039749847    71             73                   145 
     26300   0.38344955     0.38602053     0.38069611     0.00010896899  55.216736      0.010112273    0.039749847    71             73                   145 
     26400   0.38013773     0.38268554     0.37740712     0.00010896899  54.739833      0.010509772    0.039749847    71             73                   145 
     26500   0.37807033     0.38060366     0.37535395     0.00010899346  54.442127      0.010907275    0.03975431     71             73                   145 
     26600   0.37671368     0.37923706     0.3740062      0.00010945729  54.24677       0.011305146    0.039838808    71             73                   145 
     26700   0.37568839     0.37820341     0.37298681     0.00011062553  54.099128      0.011704476    0.040050844    71             73                   145 
     26800   0.37481139     0.37731819     0.3721138      0.00011268109  53.972839      0.01210669     0.04042123     71             73                   145 
     26900   0.37381849     0.37631513     0.37112458     0.00011585476  53.829863      0.012513549    0.040986511    71             73                   145 
     27000   0.37391631     0.37640898     0.37121713     0.00012044193  53.843948      0.012927213    0.041790047    71             73                   145 
     27100   0.37570956     0.3782083      0.37299164     0.00012682043  54.102176      0.013350312    0.042882353    71             73                   145 
     27200   0.37909573     0.38160938     0.37634581     0.00013546909  54.589785      0.013786012    0.044320444    71             73                   145 
     27300   0.38343341     0.38596572     0.38064206     0.00014698611  55.214411      0.014238078    0.04616599     71             73                   145 
     27400   0.38783376     0.39038151     0.38499694     0.00016210254  55.848061      0.0147109      0.048481819    71             73                   145 
     27500   0.39187109     0.39442722     0.38898684     0.00018168326  56.429436      0.015209479    0.051326477    71             73                   145 
     27600   0.39562101     0.39817799     0.39268588     0.00020670352  56.969425      0.01573935     0.054746699    71             73                   145 
     27700   0.39900485     0.40155358     0.39601491     0.0002381859   57.456698      0.01630642     0.058768151    71             73                   145 
     27800   0.40162784     0.40415547     0.39858091     0.00027708072  57.834408      0.016916703    0.063385097    71             73                   145 
     27900   0.40347147     0.40596433     0.40036483     0.00032408647  58.099892      0.017575957    0.068551104    71             73                   145 
     28000   0.40457648     0.40702095     0.40140687     0.00037943321  58.259013      0.018289252    0.074173996    71             73                   145 
     28100   0.40498253     0.40736571     0.40174687     0.00044267809  58.317484      0.01906051     0.080117615    71             73                   145 
     28200   0.40486015     0.40717158     0.40155542     0.00051259088  58.299862      0.01989211     0.086212341    71             73                   145 
     28300   0.40428168     0.40651342     0.40090634     0.0005871941   58.216562      0.020784643    0.092273043    71             73                   145 
     28400   0.40343709     0.40558507     0.3999908      0.00066396872  58.094941      0.021736856    0.098120061    71             73                   145 
     28500   0.40267        0.40473534     0.39915279     0.00074018415  57.984481      0.022745811    0.1035986      71             73                   145 
     28600   0.40237434     0.4043635      0.39878607     0.00081326703  57.941905      0.023807208    0.10859269     71             73                   145 
     28700   0.40266122     0.4045836      0.39900313     0.00088111081  57.983215      0.024915809    0.11303144     71             73                   145 
     28800   0.40373495     0.40560283     0.40000831     0.00094225925  58.137833      0.026065892    0.11688781     71             73                   145 
     28900   0.40601473     0.40784412     0.40221868     0.00099594759  58.466121      0.027251654    0.12017171     71             73                   145 
     29000   0.40942299     0.41122949     0.40555736     0.0010420283   58.956911      0.02846754     0.12292034     71             73                   145 
     29100   0.41371986     0.41551706     0.40978579     0.0010808293   59.57566       0.029708457    0.12518796     71             73                   145 
     29200   0.4185148      0.42031292     0.4145155      0.001112992    60.266132      0.030969904    0.12703694     71             73                   145 
     29300   0.4233776      0.42518303     0.41931843     0.0011393223   60.966375      0.032248013    0.12853082     71             73                   145 
     29400   0.42792718     0.42974277     0.42381528     0.0011606726   61.621514      0.033539537    0.12972953     71             73                   145 
     29500   0.4318963      0.43372222     0.42773984     0.0011778601   62.193067      0.034841799    0.13068654     71             73                   145 
     29600   0.43487866     0.43671149     0.43068789     0.0011916157   62.622528      0.036152615    0.13144743     71             73                   145 
     29700   0.43697866     0.43881508     0.43276246     0.0012025599   62.924928      0.037470219    0.13204968     70             74                   145 
     29800   0.43813992     0.43997569     0.43390706     0.0012112002   63.092148      0.038793181    0.13252321     70             74                   145 
     29900   0.43789369     0.43972091     0.43365579     0.0012179404   63.056691      0.040120333    0.13289145     70             74                   145 
     30000   0.4356352      0.43744142     0.43140774     0.0012230754   62.731469      0.041450718    0.13317129     70             74                   145 
     30100   0.43072686     0.43249602     0.42653056     0.0012257704   62.024668      0.042783302    0.13331793     70             74                   145 
     30200   0.42286456     0.42457919     0.41872292     0.0012253284   60.892496      0.044116509    0.13329389     70             74                   145 
     30300   0.41252555     0.41417179     0.40845907     0.0012214736   59.403679      0.045448561    0.13308406     70             74                   145 
     30400   0.40131124     0.40288679     0.39732974     0.0012138391   57.788818      0.046777502    0.13266751     70             74                   145 
     30500   0.39162923     0.39314899     0.38772624     0.0012020988   56.39461       0.048101147    0.13202436     70             74                   145 
     30600   0.38550636     0.38699936     0.38166144     0.0011862585   55.512916      0.049417231    0.13115163     70             74                   145 
     30700   0.38334412     0.38484279     0.37953461     0.0011657579   55.201554      0.050723295    0.13001342     70             74                   145 
     30800   0.38392263     0.38545149     0.38013492     0.0011399726   55.284859      0.052016474    0.1285675      70             74                   145 
     30900   0.38549931     0.38707126     0.38173235     0.0011083448   55.5119        0.053293478    0.12677145     70             74                   145 
     31000   0.38686924     0.38848918     0.38313071     0.0010704653   55.70917       0.054550605    0.1245863      71             73                   145 
     31100   0.38766194     0.38933234     0.38396224     0.0010261724   55.82332       0.055783804    0.12198155     71             73                   145 
     31200   0.38765795     0.38937954     0.38400879     0.00097565741  55.822745      0.056988783    0.1189413      71             73                   145 
     31300   0.38675786     0.38853005     0.38317101     0.00091955395  55.693132      0.058161193    0.11547092     71             73                   145 
     31400   0.38505044     0.38687211     0.38153594     0.0008589815   55.447264      0.059296873    0.11160301     70             74                   145 
     31500   0.38295631     0.38482768     0.37951971     0.00079551504  55.145708      0.060392136    0.10740097     70             74                   145 
     31600   0.38130578     0.38323097     0.37794502     0.00073106463  54.908033      0.061444088    0.10295842     70             74                   145 
     31700   0.38105606     0.38304377     0.37776041     0.0006676753   54.872073      0.062450895    0.098393556    70             74                   145 
     31800   0.38284025     0.38490168     0.37959269     0.00060728693  55.128996      0.063411991    0.093838481    70             74                   145 
     31900   0.38603232     0.38817263     0.38281852     0.00055151198  55.588655      0.06432814     0.089425521    70             74                   145 
     32000   0.39041916     0.39264086     0.38722513     0.00050148516  56.220359      0.065201374    0.085273295    70             74                   145 
     32100   0.39543527     0.39773633     0.39225032     0.00045781252  56.942679      0.066034792    0.08147565     70             74                   145 
     32200   0.40067324     0.40304865     0.39748936     0.00042061397  57.696946      0.066832282    0.078095471    70             74                   145 
     32300   0.4056635      0.40810523     0.4024762      0.00038962759  58.415544      0.067598199    0.075163822    70             74                   145 
     32400   0.40983682     0.41233338     0.40664602     0.00036433677  59.016502      0.068337065    0.072683445    71             73                   145 
     32500   0.41240682     0.41494188     0.40921854     0.00034408909  59.386581      0.069053309    0.070634919    71             73                   145 
     32600   0.41212713     0.41467636     0.40895669     0.00032818976  59.346307      0.069751088    0.068983705    71             73                   145 
     32700   0.4099934      0.4125401      0.4068499      0.00031596469  59.03905       0.070434164    0.06768669     71             73                   145 
     32800   0.40716816     0.4097044      0.40405331     0.00030679679  58.632215      0.071105848    0.066697477    71             73                   145 
     32900   0.40443874     0.40696264     0.40134936     0.00030014248  58.239178      0.071768986    0.06597019     71             73                   145 
     33000   0.40231361     0.40482733     0.3992435      0.00029553533  57.93316       0.072425981    0.065461915    71             73                   145 
     33100   0.40090566     0.40341252     0.39784821     0.00029258218  57.730415      0.073078825    0.065134028    71             73                   145 
     33200   0.4002864      0.40279058     0.39723485     0.0002909558   57.641242      0.07372915     0.064952745    71             73                   145 
     33300   0.40075836     0.40326642     0.39770412     0.00029038619  57.709204      0.074378272    0.064889134    71             73                   145 
     33400   0.40231969     0.40483868     0.3992547      0.00029037762  57.934036      0.075027154    0.064888177    71             73                   145 
     33500   0.40494261     0.40747994     0.40185952     0.00029037762  58.311735      0.075676036    0.064888177    71             73                   145 
     33600   0.40873071     0.41129453     0.4056215      0.00029037762  58.857223      0.076324918    0.064888177    71             73                   145 
     33700   0.41298821     0.4155818      0.40984964     0.00029037762  59.470302      0.076973799    0.064888177    71             73                   145 
     33800   0.4168812      0.41950202     0.41371578     0.00029037762  60.030893      0.077622681    0.064888177    71             73                   145 
     33900   0.41964142     0.42228153     0.41645696     0.00029037762  60.428364      0.078271563    0.064888177    71             73                   145 
     34000   0.4206104      0.42325729     0.41741926     0.00029037762  60.567898      0.078920445    0.064888177    71             73                   145 
     34100   0.41949422     0.4221333      0.41631078     0.00029037762  60.407167      0.079569326    0.064888177    71             73                   145 
     34200   0.41660485     0.41922373     0.41344134     0.00029037762  59.991099      0.080218208    0.064888177    71             73                   145 
     34300   0.41294917     0.41554249     0.40981087     0.00029037762  59.464681      0.08086709     0.064888177    71             73                   145 
     34400   0.40986707     0.41243884     0.40675002     0.00029037762  59.020858      0.081515972    0.064888177    71             73                   145 
     34500   0.40860219     0.4111651      0.40549386     0.00029037762  58.838715      0.082164853    0.064888177    71             73                   145 
     34600   0.40949121     0.41206034     0.40637675     0.00029037762  58.966734      0.082813735    0.064888177    71             73                   145 
     34700   0.41197521     0.41456172     0.40884363     0.00029037762  59.324431      0.083462617    0.064888177    71             73                   145 
     34800   0.41497538     0.41758287     0.4118231      0.00029037762  59.756455      0.084111499    0.064888177    71             73                   145 
     34900   0.41778235     0.42040946     0.41461071     0.00029037762  60.160658      0.084760381    0.064888177    71             73                   145 
     35000   0.42002753     0.42267034     0.41684041     0.00029037762  60.483964      0.085409262    0.064888177    71             73                   145 
     35100   0.42162117     0.42427513     0.41842306     0.00029037762  60.713448      0.086058144    0.064888177    71             73                   145 
     35200   0.42257205     0.42523266     0.41936738     0.00029037762  60.850375      0.086707026    0.064888177    71             73                   145 
     35300   0.42298844     0.42565196     0.4197809      0.00029037762  60.910336      0.087355908    0.064888177    71             73                   145 
     35400   0.42287105     0.42553375     0.41966432     0.00029037762  60.893431      0.088004789    0.064888177    71             73                   145 
     35500   0.42147532     0.42412826     0.41827821     0.00029037762  60.692445      0.088653671    0.064888177    71             73                   145 
     35600   0.41941024     0.42204874     0.41622738     0.00029037762  60.395074      0.089302553    0.064888177    71             73                   145 
     35700   0.41636756     0.41898478     0.41320568     0.00029037762  59.956929      0.089951435    0.064888177    71             73                   145 
     35800   0.41227597     0.41486458     0.40914231     0.00029037762  59.367739      0.090600316    0.064888177    71             73                   145 
     35900   0.40739486     0.40994933     0.40429486     0.00029037762  58.664859      0.091249198    0.064888177    71             73                   145 
     36000   0.40212156     0.40463916     0.39905793     0.00029037762  57.905504      0.09189808     0.064888177    71             73                   145 
     36100   0.39689524     0.39937629     0.39386765     0.00029037762  57.152914      0.092546962    0.064888177    71             73                   145 
     36200   0.39242266     0.39487244     0.38942592     0.00029037762  56.508863      0.093195844    0.064888177    71             73                   145 
     36300   0.39002963     0.39246267     0.38704939     0.00029037762  56.164267      0.093844725    0.064888177    71             73                   145 
     36400   0.39036785     0.39280326     0.38738528     0.00029037762  56.212971      0.094493607    0.064888177    71             73                   145 
     36500   0.39330004     0.39575595     0.39029725     0.00029037762  56.635206      0.095142489    0.064888177    71             73                   145 
     36600   0.39800065     0.40048943     0.39496544     0.00029037762  57.312093      0.095791371    0.064888177    71             73                   145 
     36700   0.40349171     0.40601889     0.40041863     0.00029037762  58.102806      0.096440252    0.064888177    71             73                   145 
     36800   0.40886443     0.41142918     0.4057543      0.00029037762  58.876478      0.097089134    0.064888177    71             73                   145 
     36900   0.41350896     0.41610619     0.4103668      0.00029037762  59.545291      0.097738016    0.064888177    71             73                   145 
     37000   0.41681413     0.41943448     0.41364918     0.00029037762  60.021235      0.098386898    0.064888177    71             73                   145 
     37100   0.41828627     0.42091691     0.41511116     0.00029037762  60.233223      0.099035779    0.064888177    71             73                   145 
     37200   0.41739633     0.42002074     0.41422735     0.00029037762  60.105071      0.099684661    0.064888177    71             73                   145 
     37300   0.41396819     0.41656863     0.41082286     0.00029037762  59.611419      0.10033354     0.064888177    71             73                   145 
     37400   0.40846863     0.41103062     0.40536123     0.00029037762  58.819483      0.10098242     0.064888177    71             73                   145 
     37500   0.4018962      0.40441223     0.39883413     0.00029037762  57.873053      0.10163131     0.064888177    71             73                   145 
     37600   0.39542633     0.39789711     0.39240888     0.00029037762  56.941392      0.10228019     0.064888177    71             73                   145 
     37700   0.38982015     0.39225172     0.38684135     0.00029037762  56.134101      0.10292907     0.064888177    71             73                   145 
     37800   0.38555538     0.38795713     0.382606       0.00029037762  55.519975      0.10357795     0.064888177    71             73                   145 
     37900   0.38298001     0.38536376     0.3800484      0.00029037762  55.149122      0.10422683     0.064888177    71             73                   145 
     38000   0.38264007     0.38502144     0.3797108      0.00029037762  55.100171      0.10487572     0.064888177    71             73                   145 
     38100   0.38510104     0.38749961     0.38215479     0.00029037762  55.454549      0.1055246      0.064888177    71             73                   145 
     38200   0.39036727     0.3928026      0.38738463     0.00029044851  56.212887      0.10617349     0.064896097    71             73                   145 
     38300   0.39761916     0.40010456     0.39458588     0.00029108838  57.25716       0.10682275     0.064967542    71             73                   145 
     38400   0.40467501     0.40720837     0.4015917      0.00029244645  58.273201      0.10747311     0.065118919    71             73                   145 
     38500   0.41120532     0.41378218     0.40807483     0.00029458861  59.213566      0.10812541     0.06535698     71             73                   145 
     38600   0.41662504     0.41923676     0.41345419     0.00029758137  59.994006      0.10878056     0.065688125    71             73                   145 
     38700   0.42060505     0.42324064     0.41740283     0.00030149008  60.567127      0.10943951     0.066118123    71             73                   145 
     38800   0.42197846     0.4246187      0.41876189     0.00030637651  60.764899      0.11010327     0.066651778    71             73                   145 
     38900   0.42213692     0.42477226     0.41891334     0.00031229585  60.787717      0.1107729      0.067292568    71             73                   145 
     39000   0.42140829     0.42403144     0.41818273     0.00031929321  60.682794      0.11144948     0.068042277    71             73                   145 
     39100   0.42035626     0.42296445     0.41713046     0.0003267871   60.531301      0.1121339      0.068836132    72             72                   145 
     39200   0.41965752     0.42225356     0.41642937     0.00033395188  60.430682      0.11282606     0.069586653    72             72                   145 
     39300   0.41927707     0.42186385     0.41604503     0.00034046829  60.375898      0.11352538     0.070262296    72             72                   145 
     39400   0.41948827     0.42207096     0.41624929     0.00034596023  60.406311      0.11423094     0.070826714    72             72                   145 
     39500   0.41986842     0.42244966     0.41662277     0.00035000442  60.461052      0.11494141     0.071239484    72             72                   145 
     39600   0.41975656     0.42233485     0.41650954     0.0003521494   60.444945      0.11565508     0.071457444    72             72                   145 
     39700   0.41862761     0.42119821     0.41538858     0.00035194512  60.282376      0.11636976     0.071436715    72             72                   145 
     39800   0.41629446     0.41885174     0.41307448     0.00034898281  59.946402      0.11708287     0.07113544     72             72                   145 
     39900   0.41415571     0.41670416     0.41095652     0.00034294305  59.638422      0.11779142     0.070517191    72             72                   145 
     40000   0.41319974     0.41575093     0.41001644     0.00033364736  59.500762      0.11849207     0.069554919    72             72                   145 
     40100   0.41376344     0.4163313      0.4105888      0.0003211065   59.581936      0.11918132     0.068235213    72             72                   145 
     40200   0.41474258     0.41733305     0.41157673     0.00030555201  59.722931      0.11985559     0.066562032    72             72                   145 
     40300   0.4148244      0.41743381     0.4116761      0.00028744109  59.734714      0.12051146     0.064559242    72             72                   145 
     40400   0.41314493     0.41576289     0.41002823     0.00026742921  59.49287       0.12114583     0.06227137     72             72                   145 
     40500   0.40918909     0.41180079     0.40612078     0.00024631034  58.923229      0.12175615     0.059762028    72             72                   145 
     40600   0.40331172     0.40590401     0.40030533     0.00022493355  58.076888      0.12234059     0.057109864    72             72                   145 
     40700   0.3964406      0.39900594     0.39350241     0.00020411176  57.087446      0.12289816     0.054402395    72             72                   145 
     40800   0.3895227      0.39205951     0.38665179     0.00018454122  56.091268      0.12342875     0.051728596    72             72                   145 
     40900   0.38420487     0.38672254     0.38138843     0.0001667471   55.325501      0.12393312     0.049171465    72             72                   145 
     41000   0.38212494     0.38464397     0.37933853     0.0001510625   55.025992      0.12441281     0.046801776    72             72                   145 
     41100   0.38368023     0.38622375     0.38089652     0.00013763858  55.249953      0.12486997     0.044673923    72             72                   145 
     41200   0.38830216     0.39088931     0.38549774     0.00012647631  55.915511      0.12530721     0.042824135    72             72                   145 
     41300   0.39446503     0.39710442     0.39162712     0.00011746895  56.802965      0.12572744     0.041271053    73             71                   145 
     41400   0.40056299     0.40325214     0.39769004     0.00011044494  57.681071      0.12613364     0.040018141    73             71                   145 
     41500   0.40513418     0.40786061     0.40223495     0.00010520383  58.339322      0.12652878     0.039057081    73             71                   145 
     41600   0.40611875     0.40885578     0.40321639     0.00010154283  58.4811        0.1269157      0.038371487    73             71                   145 
     41700   0.4036946      0.40641698     0.40081123     9.9274036e-05  58.132023      0.12729705     0.037940394    73             71                   145 
     41800   0.39888519     0.40157499     0.39603602     9.8234474e-05  57.439468      0.12767528     0.037741222    73             71                   145 
     41900   0.39277757     0.3954246      0.38997047     9.8290997e-05  56.55997       0.12805258     0.037752079    73             71                   145 
     42000   0.38636028     0.38896137     0.38359639     9.9342147e-05  55.635881      0.12843095     0.037953407    73             71                   145 
     42100   0.37867187     0.38121719     0.37595902     0.00010131837  54.528749      0.12881223     0.038329053    73             71                   145 
     42200   0.37310136     0.37560483     0.37042407     0.00010418152  53.726596      0.12919808     0.03886685     73             71                   145 
     42300   0.37033066     0.37281098     0.36766876     0.00010790248  53.327615      0.12959007     0.039554848    73             71                   145 
     42400   0.3698692      0.37234194     0.36720618     0.0001121892   53.261164      0.12998945     0.040332907    72             72                   145 
     42500   0.37106576     0.37354195     0.36838965     0.00011703928  53.43347       0.13039701     0.041195504    72             72                   145 
     42600   0.37365186     0.37614051     0.37095237     0.0001225857   53.805868      0.1308137      0.04216032     72             72                   145 
     42700   0.37702031     0.37952603     0.37429119     0.00012897634  54.290924      0.13124062     0.043245311    72             72                   145 
     42800   0.38046252     0.38298482     0.37770227     0.00013637325  54.786603      0.13167907     0.044468103    72             72                   145 
     42900   0.38425653     0.38679666     0.38146153     0.00014495036  55.33294       0.1321305      0.045845176    72             72                   145 
     43000   0.38772799     0.39028232     0.38489912     0.00015488911  55.832831      0.13259653     0.047390843    72             72                   145 
     43100   0.39152201     0.39409123     0.38865549     0.00016637147  56.37917       0.13307891     0.049116049    72             72                   145 
     43200   0.39601126     0.39859849     0.39310058     0.0001795696   57.025622      0.13357947     0.051027044    72             72                   145 
     43300   0.40143297     0.40404284     0.39846984     0.00019463213  57.806348      0.13410007     0.053124061    72             72                   145 
     43400   0.40763045     0.41026638     0.40460754     0.00021166718  58.698784      0.13464255     0.055400127    72             72                   145 
     43500   0.41409185     0.41675364     0.41100532     0.00023072359  59.629226      0.13520862     0.057840228    72             72                   145 
     43600   0.41967792     0.42235744     0.41653182     0.00025177219  60.433621      0.13579983     0.060420996    72             72                   145 
     43700   0.42396286     0.4266491      0.42076428     0.00027469037  61.050651      0.13641741     0.063111095    72             72                   145 
     43800   0.42645033     0.42912906     0.42321004     0.0002992532   61.408847      0.13706228     0.065872387    72             72                   145 
     43900   0.42680908     0.42946408     0.42354043     0.00032513774  61.460508      0.13773495     0.068662196    72             72                   145 
     44000   0.42596943     0.42859137     0.42267977     0.0003519407   61.339597      0.13843548     0.071436267    72             72                   145 
     44100   0.4242975      0.42688012     0.42099212     0.00037919944  61.098841      0.13916348     0.074151142    72             72                   145 
     44200   0.42226996     0.4248108      0.41895134     0.00040641825  60.806874      0.13991817     0.076766298    72             72                   145 
     44300   0.42028705     0.42278697     0.41695542     0.00043309849  60.521335      0.14069835     0.079245997    72             72                   145 
     44400   0.41911145     0.42157711     0.41576225     0.00045876843  60.352048      0.14150254     0.081560666    72             72                   145 
     44500   0.41922918     0.42167108     0.41585493     0.00048300941  60.369001      0.14232894     0.083687732    72             72                   145 
     44600   0.42059648     0.42302517     0.41719034     0.00050547542  60.565894      0.14317561     0.085611877    72             72                   145 
     44700   0.423009       0.42543384     0.41956579     0.00052590479  60.913296      0.14404047     0.087324793    72             72                   145 
     44800   0.42425371     0.42666878     0.4207837      0.00054412385  61.092534      0.1449214      0.088824522    72             72                   145 
     44900   0.42520704     0.42761264     0.42171453     0.00056004349  61.229814      0.14581626     0.090114542    72             72                   145 
     45000   0.42566908     0.42806411     0.42215978     0.00057365052  61.296347      0.14672302     0.0912027      72             72                   145 
     45100   0.42558147     0.42796438     0.42206143     0.00058499553  61.283731      0.14763968     0.092100137    72             72                   145 
     45200   0.42500956     0.42737917     0.42148428     0.00059417939  61.201377      0.14856443     0.092820263    71             73                   145 
     45300   0.42383759     0.42619174     0.42031323     0.00060133961  61.032613      0.14949555     0.093377858    71             73                   145 
     45400   0.42185191     0.42418681     0.41833595     0.00060663786  60.746676      0.15043149     0.09378832     71             73                   145 
     45500   0.41805493     0.42035961     0.41456154     0.00061024918  60.19991       0.15137087     0.094067067    71             73                   145 
     45600   0.41380584     0.41607867     0.41033966     0.00061235315  59.588042      0.15231245     0.094229086    71             73                   145 
     45700   0.40970913     0.41195252     0.40627042     0.00061312715  58.998114      0.15325511     0.094288619    71             73                   145 
     45800   0.4064729      0.40869365     0.4030565      0.00061313922  58.532097      0.15419801     0.094289547    71             73                   145 
     45900   0.40487802     0.40708762     0.40147262     0.00061313922  58.302435      0.1551409      0.094289547    71             73                   145 
     46000   0.40523632     0.40744842     0.40182844     0.00061313922  58.35403       0.1560838      0.094289547    71             73                   145 
     46100   0.40742747     0.4096549      0.40400449     0.00061313922  58.669556      0.1570267      0.094289547    72             72                   145 
     46200   0.41052924     0.41277836     0.40708486     0.00061313922  59.11621       0.15796959     0.094289547    72             72                   145 
     46300   0.41254197     0.41480516     0.40908371     0.00061313922  59.406043      0.15891249     0.094289547    72             72                   145 
     46400   0.41234028     0.41460206     0.40888341     0.00061313922  59.377         0.15985538     0.094289547    72             72                   145 
     46500   0.41034602     0.41259386     0.40690291     0.00061313922  59.089827      0.16079828     0.094289547    72             72                   145 
     46600   0.40645685     0.40867749     0.40304056     0.00061313922  58.529786      0.16174117     0.094289547    72             72                   145 
     46700   0.40149893     0.4036852      0.39811713     0.00061284947  57.815846      0.16268403     0.094267266    72             72                   145 
     46800   0.39701781     0.39917496     0.3936691      0.00061065641  57.170565      0.163626       0.094098448    72             72                   145 
     46900   0.39450843     0.39665275     0.39118168     0.00060600006  56.809214      0.16456536     0.093739004    72             72                   145 
     47000   0.39450987     0.3966618      0.3911906      0.00059851129  56.809421      0.16550004     0.093158004    72             72                   145 
     47100   0.39668258     0.39886052     0.39335899     0.00058784178  57.122291      0.16642768     0.092323918    72             72                   145 
     47200   0.40030463     0.40252225     0.39697022     0.00057369478  57.643867      0.16734558     0.091206218    72             72                   145 
     47300   0.40369089     0.40595027     0.40035095     0.00055586228  58.131488      0.16825077     0.089777519    72             72                   145 
     47400   0.40583416     0.40812945     0.40250008     0.00053522371  58.440119      0.16914027     0.088095084    71             73                   145 
     47500   0.40816485     0.41049881     0.40483675     0.00051317014  58.775739      0.17001216     0.08626104     71             73                   145 
     47600   0.41005104     0.41242133     0.40673276     0.00049034129  59.047349      0.17086513     0.084320512    71             73                   145 
     47700   0.41105267     0.41345304     0.40775024     0.00046758536  59.191584      0.17169844     0.082340681    71             73                   145 
     47800   0.4107894      0.41320987     0.40751042     0.00044594456  59.153673      0.17251212     0.080412662    71             73                   145 
     47900   0.4090897      0.41151788     0.40584177     0.0004266197   58.908917      0.17330724     0.078651037    71             73                   145 
     48000   0.40608287     0.40850594     0.40287137     0.00041091982  58.475933      0.17408614     0.077190268    71             73                   145 
     48100   0.40192489     0.40432975     0.39875279     0.0004002058   57.877184      0.17485254     0.076177321    71             73                   145 
     48200   0.39729506     0.39967197     0.39415925     0.00039583629  57.210488      0.17561167     0.075760321    71             73                   145 
     48300   0.39328911     0.39563468     0.39017765     0.00039911754  56.633632      0.17637018     0.076073677    71             73                   145 
     48400   0.39098834     0.39330552     0.38788062     0.00041124674  56.30232       0.17713593     0.077220967    71             73                   145 
     48500   0.39067924     0.39297197     0.38755167     0.00043322797  56.25781       0.17791758     0.079257842    71             73                   145 
     48600   0.39172411     0.39399119     0.38855682     0.00046574025  56.408272      0.17872404     0.082178061    72             72                   145 
     48700   0.39284233     0.3950734      0.38962412     0.00050895753  56.569296      0.17956384     0.085906252    72             72                   145 
     48800   0.39287122     0.39504835     0.3895994      0.00056235684  56.573455      0.18044439     0.090300466    72             72                   145 
     48900   0.39124404     0.39334669     0.38792122     0.00062458773  56.339142      0.18137142     0.095165761    72             72                   145 
     49000   0.38870843     0.39072349     0.3853342      0.0006934831   55.974014      0.18234853     0.10027714     72             72                   145 
     49100   0.38735647     0.38928828     0.38391879     0.00076625401  55.779331      0.18337702     0.10540723     72             72                   145 
     49200   0.38912722     0.3909968      0.38560374     0.00083983967  56.034319      0.18445605     0.1103525      72             72                   145 
     49300   0.39371281     0.39554198     0.39008623     0.00091131448  56.694644      0.18558292     0.11495243     72             72                   145 
     49400   0.39879466     0.40059152     0.39506612     0.00097823804  57.426432      0.18675358     0.1190985      72             72                   145 
     49500   0.40260087     0.40436287     0.39878545     0.0010388678   57.974526      0.18796318     0.12273379     72             72                   145 
     49600   0.40454119     0.40626266     0.40065904     0.0010922141   58.253932      0.18920651     0.12584556     72             72                   145 
     49700   0.40515401     0.40683337     0.40122188     0.0011379652   58.342177      0.19047841     0.12845425     72             72                   145 
     49800   0.40520583     0.40684665     0.40123498     0.0011763337   58.34964       0.19177405     0.13060183     72             72                   145 
     49900   0.40524998     0.40685931     0.40124745     0.0012077009   58.355997      0.19308907     0.13233164     72             72                   145 
     50000   0.40560557     0.40719324     0.40157679     0.0012315037   58.407202      0.19441922     0.13362935     72             72                   145 
     50100   0.40601521     0.4075885      0.40196659     0.0012485157   58.46619       0.1957604      0.13454916     72             72                   145 
     50200   0.40563712     0.40719631     0.40157981     0.001259808    58.411745      0.19710916     0.13515627     72             72                   145 
     50300   0.40396764     0.4055085      0.39991528     0.0012663786   58.17134       0.19846268     0.13550827     72             72                   145 
     50400   0.40119147     0.40271013     0.39715551     0.0012691198   57.771571      0.19981864     0.13565485     72             72                   145 
     50500   0.3983191      0.39981747     0.39430275     0.0012693225   57.35795       0.20117529     0.13566568     72             72                   145 
     50600   0.39591889     0.39740048     0.39191909     0.0012693225   57.01232       0.20253194     0.13566568     72             72                   145 
     50700   0.39417179     0.39564116     0.39018404     0.0012693225   56.760738      0.2038886      0.13566568     72             72                   145 
     50800   0.39257035     0.39402852     0.38859364     0.0012693225   56.53013       0.20524526     0.13566568     72             72                   145 
     50900   0.39040828     0.39185133     0.38644649     0.0012693225   56.218793      0.20660192     0.13566568     72             72                   145 
     51000   0.3878274      0.3892524      0.3838834      0.0012693225   55.847145      0.20795857     0.13566568     72             72                   145 
     51100   0.38561804     0.3870276      0.38168928     0.0012693225   55.528998      0.20931523     0.13566568     72             72                   145 
     51200   0.38514399     0.38655023     0.3812185      0.0012693225   55.460734      0.21067189     0.13566568     72             72                   145 
     51300   0.38706735     0.38848704     0.3831286      0.0012693225   55.737699      0.21202854     0.13566568     72             72                   145 
     51400   0.39090607     0.3923526      0.38694084     0.0012693225   56.290474      0.2133852      0.13566568     72             72                   145 
     51500   0.39565303     0.39713276     0.39165507     0.0012693225   56.974037      0.21474186     0.13566568     72             72                   145 
     51600   0.40098016     0.40249715     0.39694546     0.0012693225   57.741144      0.21609851     0.13566568     72             72                   145 
     51700   0.40581971     0.40737053     0.40175163     0.0012693225   58.438038      0.21745517     0.13566568     72             72                   145 
     51800   0.409132       0.41070598     0.40504107     0.0012693225   58.915007      0.21881183     0.13566568     72             72                   145 
     51900   0.41015716     0.41173832     0.40605917     0.001269317    59.06263       0.22016848     0.13566538     72             72                   145 
     52000   0.4086619      0.41023271     0.40457432     0.0012692179   58.847314      0.22152512     0.13566009     72             72                   145 
     52100   0.4048038      0.40634787     0.40074308     0.0012689782   58.291748      0.22288166     0.13564728     72             72                   145 
     52200   0.39936506     0.40087151     0.39534225     0.0012685773   57.508569      0.22423803     0.13562585     72             72                   145 
     52300   0.39336315     0.39482821     0.38938231     0.0012679962   56.644294      0.22559414     0.13559478     72             72                   145 
     52400   0.38756135     0.38898663     0.38362129     0.0012672178   55.808834      0.22694989     0.13555316     72             72                   145 
     52500   0.38289279     0.38428642     0.37898592     0.0012662282   55.136561      0.22830517     0.13550022     72             72                   145 
     52600   0.37965896     0.38103121     0.3757756      0.0012650165   54.67089       0.22965986     0.13543537     72             72                   145 
     52700   0.37685871     0.37821283     0.3729961      0.0012635762   54.267654      0.23101384     0.13535825     72             72                   145 
     52800   0.37430063     0.37563856     0.37045734     0.0012619051   53.899291      0.23236698     0.13526871     72             72                   145 
     52900   0.37305474     0.37438589     0.36922194     0.001260006    53.719883      0.23371917     0.13516689     72             72                   145 
     53000   0.37391706     0.37525639     0.37008044     0.0012578871   53.844057      0.23507028     0.13505318     73             71                   145 
     53100   0.37694087     0.37830434     0.37308635     0.0012549215   54.279485      0.23642008     0.13489389     73             71                   145 
     53200   0.38153565     0.38293583     0.37765396     0.0012504158   54.941134      0.23776788     0.13465151     73             71                   145 
     53300   0.38678958     0.38823272     0.38287778     0.0012442809   55.697699      0.23911282     0.13432079     73             71                   145 
     53400   0.39179768     0.3932838      0.38785919     0.0012364358   56.418866      0.24045398     0.13389667     73             71                   145 
     53500   0.39613356     0.39765975     0.39217479     0.00122681     57.043232      0.24179042     0.13337445     73             71                   145 
     53600   0.3995745      0.40113639     0.39560348     0.0012153402   57.538728      0.24312113     0.13274951     73             71                   145 
     53700   0.40191589     0.40350771     0.39794209     0.0012019618   57.875888      0.24444506     0.13201684     73             71                   145 
     53800   0.40302571     0.40464087     0.39905962     0.0011866      58.035702      0.24576109     0.1311705      73             71                   145 
     53900   0.40296215     0.40459455     0.39901394     0.0011691585   58.026549      0.24706806     0.13020291     73             71                   145 
     54000   0.40208159     0.40372777     0.39815911     0.0011495046   57.899749      0.24836471     0.1291039      73             71                   145 
     54100   0.40142562     0.40308957     0.39752971     0.0011274516   57.805289      0.24964966     0.12785949     73             71                   145 
     54200   0.40218586     0.40388018     0.39830942     0.0011027396   57.914763      0.25092135     0.12645048     73             71                   145 
     54300   0.40483026     0.40657119     0.40096331     0.0010750163   58.295557      0.25217803     0.12485086     72             72                   145 
     54400   0.4085514      0.41034998     0.40468998     0.0010438215   58.831401      0.25341762     0.12302606     72             72                   145 
     54500   0.41186697     0.41372447     0.40801793     0.0010085804   59.308844      0.25463765     0.12093145     72             72                   145 
     54600   0.41364692     0.41555549     0.40982369     0.00097049408  59.565157      0.25583551     0.11862615     72             72                   145 
     54700   0.41375815     0.41570655     0.40997267     0.0009319799   59.581174      0.25700994     0.11624848     72             72                   145 
     54800   0.41277521     0.4147556      0.40903483     0.00089364967  59.43963       0.25816035     0.11383286     72             72                   145 
     54900   0.41144158     0.4134504      0.40774764     0.00085641495  59.247587      0.25928665     0.11143616     72             72                   145 
     55000   0.41015684     0.41219197     0.40650656     0.00082161447  59.062585      0.26038944     0.10914857     72             72                   145 
     55100   0.40906472     0.41112312     0.40545245     0.00079113242  58.90532       0.26147043     0.10710472     72             72                   145 
     55200   0.40809507     0.41017066     0.40451314     0.00076748526  58.76569       0.26253296     0.10549188     72             72                   145 
     55300   0.40700862     0.40909046     0.40344784     0.00075383073  58.609242      0.2635825      0.10454925     72             72                   145 
     55400   0.40524716     0.40731668     0.40169852     0.00075383414  58.355592      0.26462709     0.10454949     72             72                   145 
     55500   0.40305416     0.4050906      0.39950315     0.00077132904  58.039799      0.26567751     0.10575571     72             72                   145 
     55600   0.40068877     0.40266976     0.3971157      0.00080970093  57.699182      0.26674686     0.10835434     72             72                   145 
     55700   0.39861913     0.40052354     0.39499908     0.00087095831  57.401155      0.26784938     0.11237836     72             72                   145 
     55800   0.39743482     0.39924611     0.39373927     0.00095462101  57.230614      0.26899862     0.11765205     72             72                   145 
     55900   0.39770483     0.39941435     0.39390519     0.0010568486   57.269495      0.27020532     0.12379137     72             72                   145 
     56000   0.39957686     0.40118428     0.3956507      0.0011704547   57.539068      0.27147559     0.13027506     72             72                   145 
     56100   0.40275384     0.40426556     0.39868949     0.0012867442   57.996553      0.27281027     0.13659352     72             72                   145 
     56200   0.40663299     0.40806        0.40243159     0.0013970403   58.555151      0.2742055      0.14232738     72             72                   145 
     56300   0.41046682     0.41182175     0.40614145     0.0014945731   59.107223      0.27565396     0.14721179     72             72                   145 
     56400   0.4137368      0.41503228     0.4093077      0.0015757386   59.578099      0.27714658     0.15115624     72             72                   145 
     56500   0.41618569     0.41743315     0.41167545     0.0016399952   59.93074       0.2786741      0.15420743     72             72                   145 
     56600   0.417621       0.41882878     0.41305183     0.0016890236   60.137424      0.28022818     0.1564955      72             72                   145 
     56700   0.41803275     0.41920622     0.41342406     0.0017257014   60.196716      0.28180202     0.15818556     73             71                   145 
     56800   0.41755142     0.41869358     0.4129185      0.00175326     60.127405      0.28339046     0.15944363     73             71                   145 
     56900   0.41625641     0.41736773     0.41161094     0.0017747434   59.940924      0.28498995     0.16041751     74             70                   145 
     57000   0.41149076     0.41255052     0.40686016     0.0017927312   59.25467       0.28659827     0.16122841     74             70                   145 
     57100   0.40519227     0.40619123     0.40058859     0.0018092489   58.347687      0.28821428     0.16196947     74             70                   145 
     57200   0.39772957     0.39865957     0.39316081     0.0018257903   57.273058      0.28983765     0.1627082      73             71                   145 
     57300   0.38976881     0.39062285     0.38523495     0.001845804    56.126709      0.29146895     0.16359755     73             71                   145 
     57400   0.38240928     0.38318574     0.37790042     0.0018715608   55.066937      0.29311043     0.16473503     73             71                   145 
     57500   0.37711773     0.37782767     0.37261625     0.0019006693   54.304954      0.2947641      0.16601116     73             71                   145 
     57600   0.37499156     0.37565538     0.37047393     0.0019314882   53.998785      0.29643087     0.16735166     73             71                   145 
     57700   0.37595368     0.37659177     0.3713974      0.0019634983   54.13733       0.29811127     0.16873271     73             71                   145 
     57800   0.37859716     0.37922067     0.37399004     0.0019960999   54.517991      0.29980557     0.17012774     73             71                   145 
     57900   0.38130121     0.38191063     0.3766429      0.0020286497   54.907375      0.30151378     0.17150924     73             71                   145 
     58000   0.38347334     0.38406565     0.37876819     0.0020605046   55.220161      0.30323562     0.17285056     73             71                   145 
     58100   0.38560361     0.38617983     0.38085321     0.0020910659   55.52692       0.30497057     0.1741277      73             71                   145 
     58200   0.38862721     0.38919541     0.3838272      0.0021198166   55.962318      0.30671789     0.17532068     73             71                   145 
     58300   0.39293019     0.39350158     0.38807398     0.0021463486   56.581947      0.30847666     0.17641444     73             71                   145 
     58400   0.39814785     0.39873137     0.39323163     0.0021703765   57.333291      0.31024582     0.17739915     73             71                   145 
     58500   0.40333834     0.4039365      0.39836496     0.0021917374   58.080721      0.31202426     0.17827        73             71                   145 
     58600   0.40710579     0.40771139     0.40208778     0.0022103812   58.623233      0.31381084     0.17902661     73             71                   145 
     58700   0.40839436     0.40899277     0.40335149     0.0022263526   58.808787      0.31560442     0.17967223     73             71                   145 
     58800   0.40667734     0.40725014     0.4016329      0.0022397701   58.561537      0.31740393     0.18021284     73             71                   145 
     58900   0.4019761      0.40250484     0.39695305     0.0022508047   57.884558      0.31920835     0.18065621     73             71                   145 
     59000   0.39600713     0.39648514     0.39101638     0.00225966     57.025026      0.32101676     0.18101124     73             71                   145 
     59100   0.39134455     0.39178297     0.38637906     0.0022665557   56.353615      0.32282832     0.18128722     73             71                   145 
     59200   0.38990353     0.39032664     0.38494283     0.0022717149   56.146109      0.32464227     0.18149343     73             71                   145 
     59300   0.39211176     0.39254662     0.38713218     0.0022753543   56.464093      0.32645798     0.18163876     73             71                   145 
     59400   0.39658973     0.39705355     0.39157695     0.0022776782   57.108922      0.32827487     0.18173149     73             71                   145 
     59500   0.40140625     0.40190254     0.39635905     0.0022788746   57.8025        0.33009246     0.18177921     73             71                   145 
     59600   0.40514369     0.40566585     0.40007046     0.0022791352   58.340691      0.33191033     0.18178961     73             71                   145 
     59700   0.40487689     0.40539719     0.3998055      0.0022791352   58.302273      0.33372823     0.18178961     73             71                   145 
     59800   0.40326907     0.40377812     0.39820877     0.0022791352   58.070746      0.33554612     0.18178961     73             71                   145 
     59900   0.40117661     0.40167103     0.39613074     0.0022791352   57.769431      0.33736402     0.18178961     73             71                   145 
     60000   0.39949315     0.39997579     0.39445889     0.0022791352   57.527013      0.33918192     0.18178961     73             71                   145 
     60100   0.39889969     0.39937818     0.39386952     0.0022791348   57.441555      0.34099981     0.18178959     73             71                   145 
     60200   0.39944125     0.3999243      0.3944081      0.0022783795   57.51954       0.34281761     0.18175946     73             71                   145 
     60300   0.4006219      0.40111551     0.39558288     0.0022761054   57.689553      0.3446348      0.18166873     73             71                   145 
     60400   0.40173832     0.40224369     0.39669551     0.0022722058   57.850318      0.34645076     0.18151304     73             71                   145 
     60500   0.40196796     0.40248064     0.39692919     0.00226658     57.883386      0.34826483     0.1812882      73             71                   145 
     60600   0.40067085     0.40118201     0.39564847     0.0022591368   57.696602      0.35007628     0.18099029     73             71                   145 
     60700   0.39777483     0.39827521     0.39278176     0.0022497982   57.279576      0.35188438     0.18061582     73             71                   145 
     60800   0.39394273     0.39442699     0.38898661     0.0022392687   56.727753      0.35368843     0.18019266     73             71                   145 
     60900   0.39028427     0.39075386     0.38536415     0.0022285      56.200935      0.3554882      0.17975887     73             71                   145 
     61000   0.38793524     0.38839948     0.38304224     0.0022175823   55.862674      0.35728359     0.17931799     73             71                   145 
     61100   0.3875958      0.38806878     0.38271611     0.0022066138   55.813795      0.35907455     0.17887398     73             71                   145 
     61200   0.38930306     0.38979906     0.38442252     0.0021956945   56.059641      0.36086107     0.17843086     73             71                   145 
     61300   0.39244159     0.39297048     0.3875502      0.0021849004   56.511589      0.36264318     0.17799173     73             71                   145 
     61400   0.39639635     0.39696391     0.39148854     0.0021740403   57.081075      0.36442089     0.17754882     73             71                   145 
     61500   0.40092954     0.40154003     0.39600154     0.0021629661   57.733854      0.36619412     0.17709604     73             71                   145 
     61600   0.40607643     0.40673449     0.40112436     0.0021515454   58.475006      0.36796276     0.17662788     73             71                   145 
     61700   0.41185635     0.41256693     0.40687636     0.0021396015   59.307314      0.3697266      0.17613694     73             71                   145 
     61800   0.41788136     0.41864692     0.41287248     0.0021269341   60.174916      0.37148539     0.17561476     73             71                   145 
     61900   0.42346755     0.42428596     0.41843374     0.0021133461   60.979328      0.37323877     0.1750529      73             71                   145 
     62000   0.42792302     0.42878747     0.42287316     0.0020986674   61.620915      0.37498629     0.17444391     73             71                   145 
     62100   0.43075339     0.43165376     0.42569991     0.0020827695   62.028489      0.37672747     0.17378193     73             71                   145 
     62200   0.43177521     0.43270015     0.42673187     0.0020655733   62.17563       0.37846174     0.17306303     73             71                   145 
     62300   0.43105316     0.43199184     0.42603333     0.0020470512   62.071656      0.38018853     0.17228535     73             71                   145 
     62400   0.42856103     0.42950238     0.42357821     0.0020272319   61.712789      0.38190725     0.1714493      72             72                   145 
     62500   0.42425236     0.42518489     0.41932027     0.0020062091   61.092339      0.38361733     0.170558       72             72                   145 
     62600   0.41838629     0.41930016     0.41351671     0.0019841548   60.247626      0.38531825     0.16961794     72             72                   145 
     62700   0.411726       0.41261644     0.40692518     0.0019613318   59.288544      0.38700957     0.16863959     72             72                   145 
     62800   0.4051086      0.40597632     0.40037664     0.0019381018   58.335638      0.38869097     0.16763793     72             72                   145 
     62900   0.3997644      0.40061825     0.39509248     0.0019149236   57.566073      0.39036231     0.16663251     72             72                   145 
     63000   0.39756997     0.39843138     0.39293578     0.0018923291   57.250075      0.39202368     0.16564653     72             72                   145 
     63100   0.39839671     0.39928565     0.39377826     0.0018708835   57.369126      0.39367539     0.16470522     72             72                   145 
     63200   0.40150322     0.40243391     0.3968831      0.0018511344   57.816464      0.39531802     0.1638336      72             72                   145 
     63300   0.40593222     0.4069117      0.40129913     0.0018335621   58.45424       0.39695237     0.16305413     72             72                   145 
     63400   0.41072549     0.41175372     0.40607436     0.0018185388   59.14447       0.39857947     0.16238477     72             72                   145 
     63500   0.414797       0.4158661      0.41013002     0.0018063073   59.730767      0.40020047     0.16183775     72             72                   145 
     63600   0.41709739     0.41819205     0.41242388     0.0017969719   60.062024      0.40181665     0.161419       72             72                   145 
     63700   0.41719748     0.41829941     0.41252977     0.0017904927   60.076437      0.40342928     0.16112773     72             72                   145 
     63800   0.41528981     0.41638225     0.41063904     0.0017866989   59.801732      0.40503961     0.16095693     72             72                   145 
     63900   0.4119825      0.41305322     0.40735593     0.001785312    59.32548       0.40664878     0.16089445     72             72                   145 
     64000   0.40796616     0.40900812     0.40336663     0.0017859756   58.747128      0.4082578      0.16092435     72             72                   145 
     64100   0.4040346      0.40504672     0.39945987     0.001788287    58.180983      0.40986751     0.16102845     72             72                   145 
     64200   0.40050862     0.40149249     0.39595466     0.0017918286   57.673241      0.41147856     0.16118782     72             72                   145 
     64300   0.39784848     0.39880936     0.39330854     0.0017961593   57.290182      0.41309139     0.16138249     72             72                   145 
     64400   0.39614684     0.39709196     0.39161483     0.0017999612   57.045145      0.41470611     0.1615532      72             72                   145 
     64500   0.39509785     0.3960329      0.39057038     0.0018026531   56.89409       0.41632229     0.16167396     72             72                   145 
     64600   0.39433589     0.39526409     0.38981217     0.0018041566   56.784368      0.41793941     0.16174137     72             72                   145 
     64700   0.3935473      0.39446968     0.38902872     0.0018044548   56.670811      0.41955694     0.16175474     72             72                   145 
     64800   0.39262066     0.39353744     0.38810934     0.0018035848   56.537374      0.42117433     0.16171574     72             72                   145 
     64900   0.39158339     0.39249492     0.38708119     0.0018016266   56.388009      0.42279109     0.16162792     72             72                   145 
     65000   0.39037021     0.39127584     0.38587893     0.0017990754   56.21331       0.42440679     0.16151345     72             72                   145 
     65100   0.38917266     0.39007231     0.38469201     0.0017967087   56.040864      0.42602139     0.16140718     72             72                   145 
     65200   0.38847737     0.38937436     0.38400368     0.0017945349   55.940741      0.42763496     0.1613095      72             72                   145 
     65300   0.38870343     0.38960402     0.38423017     0.0017925519   55.973294      0.42924761     0.16122035     72             72                   145 
     65400   0.3897436      0.39065327     0.38526495     0.0017907625   56.123078      0.4308594      0.16113987     72             72                   145 
     65500   0.39155723     0.3924812      0.38706767     0.001789171    56.384242      0.43247043     0.16106825     72             72                   145 
     65600   0.3940542      0.39499704     0.3895488      0.001787779    56.743805      0.43408079     0.16100558     72             72                   145 
     65700   0.3968913      0.39785519     0.39236753     0.0017865843   57.152347      0.43569057     0.16095177     72             72                   145 
     65800   0.39984367     0.40082923     0.39530055     0.0017855806   57.577489      0.43729986     0.16090655     72             72                   145 
     65900   0.40300975     0.40401828     0.39844561     0.0017847582   58.033403      0.43890873     0.16086949     72             72                   145 
     66000   0.40664845     0.40768309     0.40205987     0.0017841045   58.557377      0.44051727     0.16084003     72             72                   145 
     66100   0.4109923      0.41205782     0.40637427     0.0017836041   59.182891      0.44212556     0.16081747     72             72                   145 
     66200   0.41600879     0.41710976     0.41135652     0.0017832399   59.905266      0.44373364     0.16080105     72             72                   145 
     66300   0.4212865      0.42242463     0.41659809     0.001782993    60.665256      0.44534159     0.16078992     72             72                   145 
     66400   0.4260874      0.42725925     0.42136602     0.0017828437   61.356586      0.44694946     0.16078319     72             72                   145 
     66500   0.42944362     0.43063902     0.42469917     0.0017827717   61.839881      0.44855727     0.16077994     72             72                   145 
     66600   0.43131774     0.43252626     0.42656038     0.0017827559   62.109755      0.45016506     0.16077923     72             72                   145 
     66700   0.43203307     0.43324659     0.42727078     0.0017827516   62.212761      0.45177286     0.16077904     72             72                   145 
     66800   0.43188324     0.43309656     0.42712282     0.0017819126   62.191186      0.45338051     0.1607412      72             72                   145 
     66900   0.43078364     0.43199172     0.42603321     0.0017795057   62.032844      0.45498744     0.1606326      72             72                   145 
     67000   0.42841737     0.4296131      0.4236874      0.0017753648   61.692101      0.4565929      0.1604456      72             72                   145 
     67100   0.42479287     0.42596938     0.42009394     0.0017693328   61.170174      0.45819607     0.1601728      72             72                   145 
     67200   0.42047928     0.42163315     0.41581752     0.0017618974   60.549016      0.45979615     0.15983589     72             72                   145 
     67300   0.41643886     0.41757315     0.41181352     0.0017533524   59.967196      0.46139262     0.15944783     72             72                   145 
     67400   0.41327845     0.41440045     0.40868458     0.0017436748   59.512097      0.46298494     0.15900718     72             72                   145 
     67500   0.41077061     0.41188601     0.40620482     0.0017328842   59.150968      0.46457259     0.15851442     72             72                   145 
     67600   0.40837626     0.40948691     0.40383881     0.0017210604   58.806182      0.46615506     0.15797271     72             72                   145 
     67700   0.40571839     0.40682332     0.40121196     0.0017083656   58.423448      0.4677319      0.15738901     72             72                   145 
     67800   0.40292184     0.4040207      0.398448       0.0016950692   58.020745      0.46930274     0.15677533     72             72                   145 
     67900   0.40039243     0.40148728     0.39594952     0.0016815785   57.65651       0.47086737     0.15615021     72             72                   145 
     68000   0.3985675      0.39966288     0.39415029     0.0016684683   57.39372       0.47242579     0.15554032     72             72                   145 
     68100   0.3975597      0.39866016     0.3931614      0.0016565097   57.248597      0.47397834     0.15498191     72             72                   145 
     68200   0.39711444     0.39822174     0.39272902     0.0016466902   57.184479      0.47552576     0.15452187     72             72                   145 
     68300   0.39642444     0.39753347     0.39205025     0.001640229    57.08512       0.4770693      0.15421842     72             72                   145 
     68400   0.39430523     0.39540111     0.3899473      0.0016385837   56.779953      0.47861088     0.15414105     72             72                   145 
     68500   0.39128788     0.39235774     0.38694591     0.0016434396   56.345455      0.48015314     0.15436928     72             72                   145 
     68600   0.38827639     0.38931177     0.38394195     0.0016566719   55.911801      0.48169957     0.15498949     72             72                   145 
     68700   0.38579225     0.38678633     0.38145134     0.0016802677   55.554083      0.48325453     0.15608934     72             72                   145 
     68800   0.38453051     0.38547933     0.38016238     0.0017161967   55.372393      0.48482323     0.15774933     72             72                   145 
     68900   0.38551088     0.38641584     0.38108596     0.0017662191   55.513567      0.48641159     0.1600318      72             72                   145 
     69000   0.38863749     0.38949799     0.3841256      0.0018316306   55.963799      0.48802605     0.16296823     72             72                   145 
     69100   0.39337155     0.39418267     0.38874567     0.0019129684   56.645503      0.48967311     0.16654742     72             72                   145 
     69200   0.39889655     0.3996482      0.39413581     0.0020097262   57.441103      0.49135894     0.17070744     72             72                   145 
     69300   0.40440476     0.40508295     0.3994956      0.0021201605   58.234286      0.49308882     0.1753349      72             72                   145 
     69400   0.40933398     0.40992383     0.40426971     0.0022412773   58.944093      0.49486667     0.18027346     72             72                   145 
     69500   0.41339162     0.41388028     0.40817158     0.0023690562   59.528393      0.49669472     0.18534108     72             72                   145 
     69600   0.41655891     0.41693804     0.41118717     0.002498918    59.984483      0.49857331     0.19035312     73             71                   145 
     69700   0.41913239     0.41940033     0.41361549     0.0026263322   60.355065      0.50050105     0.19514563     73             71                   145 
     69800   0.4214574      0.42161888     0.41580345     0.0027473546   60.689866      0.50247506     0.19959119     73             71                   145 
     69900   0.42347578     0.42353817     0.41769626     0.0028589976   60.980513      0.50449143     0.20360615     73             71                   145 
     70000   0.42518863     0.4251612      0.41929691     0.0029593881   61.227163      0.50654561     0.20715001     73             71                   145 
     70100   0.42650368     0.42639588     0.42051455     0.0030477249   61.41653       0.50863284     0.21021896     73             71                   145 
     70200   0.42693823     0.42675602     0.42086973     0.003124097    61.479105      0.51074848     0.21283657     73             71                   145 
     70300   0.42611944     0.42586546     0.41999146     0.0031892261   61.361199      0.51288821     0.21504367     73             71                   145 
     70400   0.42383627     0.42351057     0.41766905     0.0032442125   61.032423      0.51504815     0.21688956     73             71                   145 
     70500   0.42029255     0.4198953      0.41410365     0.0032903381   60.522128      0.51722497     0.21842597     73             71                   145 
     70600   0.4160196      0.41555335     0.40982158     0.0033289183   59.906822      0.51941581     0.21970279     73             71                   145 
     70700   0.41135768     0.41082609     0.40515953     0.0033612034   59.235506      0.52161831     0.2207656      73             71                   145 
     70800   0.40671227     0.4061207      0.40051904     0.0033883199   58.566567      0.52383054     0.22165432     73             71                   145 
     70900   0.40199344     0.40134589     0.39581008     0.0034109845   57.887055      0.52605091     0.22239441     72             72                   145 
     71000   0.3970329      0.39633246     0.39086581     0.0034289293   57.172737      0.5282779      0.22297864     72             72                   145 
     71100   0.3917599      0.39100847     0.38561525     0.003442854    56.413425      0.53051005     0.22343094     72             72                   145 
     71200   0.38645742     0.38565818     0.38033876     0.0034534431   55.649869      0.53274615     0.22377427     72             72                   145 
     71300   0.3819711      0.3811326      0.3758756      0.003461216    55.003838      0.53498523     0.22402596     72             72                   145 
     71400   0.37933946     0.3784771      0.37325672     0.0034666038   54.624882      0.53722642     0.22420026     72             72                   145 
     71500   0.37926859     0.37840234     0.373183       0.0034699515   54.614677      0.53946901     0.22430849     72             72                   145 
     71600   0.38157846     0.38072674     0.37547534     0.0034715457   54.947298      0.5417124      0.22436001     72             72                   145 
     71700   0.3858666      0.38504478     0.37973382     0.0034716365   55.564791      0.54395605     0.22436294     72             72                   145 
     71800   0.39120698     0.39042325     0.3850381      0.0034708989   56.333805      0.54619956     0.2243391      72             72                   145 
     71900   0.39610672     0.39535819     0.38990497     0.0034699835   57.039368      0.54844281     0.22430952     72             72                   145 
     72000   0.39979888     0.39907727     0.39357276     0.0034688888   57.571039      0.55068574     0.22427413     72             72                   145 
     72100   0.40233711     0.40163454     0.39609475     0.0034676158   57.936543      0.55292828     0.22423298     72             72                   145 
     72200   0.40367523     0.40298349     0.39742509     0.0034661716   58.129234      0.55517038     0.22418628     72             72                   145 
     72300   0.40496193     0.40428081     0.39870452     0.0034645688   58.314518      0.55741198     0.22413444     72             72                   145 
     72400   0.40712415     0.40645992     0.40085358     0.0034628255   58.625878      0.55965305     0.22407804     72             72                   145 
     72500   0.4103609      0.4097207      0.40406938     0.003461438    59.091969      0.56189357     0.22403315     72             72                   145 
     72600   0.41474185     0.41413169     0.40841952     0.0034620403   59.722827      0.56413393     0.22405264     72             72                   145 
     72700   0.41943319     0.41885228     0.41307501     0.0034655424   60.39838       0.56637493     0.22416593     72             72                   145 
     72800   0.42332672     0.42276554     0.41693429     0.0034729324   60.959047      0.56861767     0.22440481     72             72                   145 
     72900   0.42542959     0.42487054     0.41901025     0.0034853345   61.26186       0.57086357     0.22480514     72             72                   145 
     73000   0.42521593     0.42463646     0.4187794      0.0035040065   61.231095      0.57311444     0.22540651     72             72                   145 
     73100   0.42262024     0.42199592     0.41617528     0.0035303293   60.857314      0.57537251     0.22625158     72             72                   145 
     73200   0.41808392     0.41739192     0.41163479     0.0035657887   60.204084      0.57764043     0.227385       72             72                   145 
     73300   0.41239717     0.41161861     0.40594111     0.0036119409   59.385192      0.57992132     0.22885179     72             72                   145 
     73400   0.40652322     0.40564435     0.40004925     0.0036703598   58.539344      0.58221872     0.23069507     72             72                   145 
     73500   0.4014064      0.40041853     0.39489552     0.0037425583   57.802521      0.58453661     0.23295299     72             72                   145 
     73600   0.39784289     0.39674297     0.39127065     0.0038284978   57.289377      0.58687916     0.23561243     72             72                   145 
     73700   0.3958605      0.39464853     0.3892051      0.0039253225   57.003912      0.58924985     0.23857321     72             72                   145 
     73800   0.39490249     0.39357557     0.38814694     0.0040320847   56.865958      0.5916515      0.24179584     72             72                   145 
     73900   0.39404501     0.39259562     0.38718051     0.0041469501   56.742482      0.59408643     0.24521578     72             72                   145 
     74000   0.39244059     0.3908579      0.38546676     0.0042673462   56.511445      0.5965562      0.24874992     72             72                   145 
     74100   0.38976188     0.38803647     0.38268424     0.0043896301   56.125711      0.59906144     0.2522888      72             72                   145 
     74200   0.38683078     0.38496369     0.37965385     0.0045091271   55.703632      0.60160155     0.25569971     72             72                   145 
     74300   0.38540637     0.38341656     0.37812805     0.0046203416   55.498517      0.60417452     0.25883383     72             72                   145 
     74400   0.38663774     0.38455817     0.37925392     0.0047173498   55.675834      0.60677679     0.26153694     72             72                   145 
     74500   0.38952285     0.38738538     0.38204213     0.0047943562   56.09129       0.60940333     0.26366298     72             72                   145 
     74600   0.39221962     0.39004829     0.38466831     0.0048463464   56.479625      0.61204771     0.26508871     72             72                   145 
     74700   0.39380959     0.39162566     0.38622393     0.0048697327   56.708581      0.61470248     0.26572754     72             72                   145 
     74800   0.39431758     0.39214416     0.38673528     0.0048628698   56.781732      0.6173595      0.26554023     72             72                   145 
     74900   0.39401134     0.39187284     0.3864677      0.004826328    56.737634      0.62001057     0.26454065     72             72                   145 
     75000   0.39336394     0.39128527     0.38588823     0.0047628524   56.644407      0.62264783     0.26279528     72             72                   145 
     75100   0.3933162      0.39132425     0.38592667     0.0046770061   56.637533      0.62526436     0.26041618     72             72                   145 
     75200   0.3949596      0.39308301     0.38766118     0.004574566    56.874183      0.62785452     0.25754846     72             72                   145 
     75300   0.3990522      0.39731857     0.39183831     0.004461798    57.463516      0.63041424     0.25435422     72             72                   145 
     75400   0.40542838     0.40385802     0.39828756     0.0043447574   58.381687      0.63294106     0.25099598     72             72                   145 
     75500   0.41311744     0.41171849     0.40603961     0.0042287371   59.488911      0.63543411     0.24762207     72             72                   145 
     75600   0.42061907     0.41938494     0.41360032     0.0041179304   60.569146      0.63789386     0.24435628     72             72                   145 
     75700   0.42617428     0.42508305     0.41921984     0.004015314    61.369097      0.64032191     0.24129246     72             72                   145 
     75800   0.42797415     0.42698942     0.42109991     0.0039226922   61.628277      0.6427206      0.23849326     72             72                   145 
     75900   0.42493248     0.42400948     0.41816107     0.0038408376   61.190276      0.64509277     0.23599183     72             72                   145 
     76000   0.41711417     0.41620862     0.41046781     0.0037697161   60.064441      0.64744146     0.23379667     72             72                   145 
     76100   0.40618685     0.40526661     0.39967673     0.0037088274   58.490906      0.64976969     0.23190083     72             72                   145 
     76200   0.39541838     0.39447271     0.3890317      0.0036596569   56.940247      0.65208068     0.23035847     72             72                   145 
     76300   0.38825445     0.38729727     0.38195524     0.0036215945   55.908641      0.654378       0.22915742     72             72                   145 
     76400   0.38576664     0.38482121     0.37951333     0.0035928483   55.550395      0.6566648      0.22824614     72             72                   145 
     76500   0.38648667     0.38556767     0.38024949     0.0035717575   55.654081      0.65894372     0.22757523     72             72                   145 
     76600   0.38823833     0.38734671     0.382004       0.0035568315   55.90632       0.66121695     0.22709922     73             71                   145 
     76700   0.39043059     0.3895645      0.38419119     0.0035467685   56.222004      0.66348622     0.22677774     73             71                   145 
     76800   0.39299488     0.39215312     0.38674411     0.0035404593   56.591263      0.66575291     0.22657595     73             71                   145 
     76900   0.3959222      0.39510444     0.38965472     0.0035369801   57.012797      0.66801804     0.22646459     73             71                   145 
     77000   0.39900071     0.3982059      0.3927134      0.0035355797   57.456102      0.67028242     0.22641976     73             71                   145 
     77100   0.40169997     0.40092429     0.3953943      0.0035353261   57.844796      0.67254658     0.22641163     73             71                   145 
     77200   0.40360254     0.40284195     0.39728551     0.0035335644   58.118765      0.67481047     0.22635522     73             71                   145 
     77300   0.40452634     0.40377631     0.39820698     0.003529526    58.251793      0.67707344     0.22622583     73             71                   145 
     77400   0.40444932     0.4037055      0.39813715     0.0035228651   58.240703      0.67933471     0.22601226     73             71                   145 
     77500   0.40360963     0.40286974     0.39731292     0.0035131928   58.119786      0.68159336     0.22570179     73             71                   145 
     77600   0.40233914     0.40160367     0.39606431     0.0035000769   57.936837      0.68384837     0.22528008     74             70                   145 
     77700   0.40085882     0.40013027     0.39461123     0.0034830433   57.72367       0.68609854     0.22473123     74             70                   145 
     77800   0.39922203     0.3985038      0.3930072      0.0034615822   57.487973      0.68834251     0.22403781     74             70                   145 
     77900   0.39730638     0.39660154     0.39113118     0.0034351604   57.212119      0.69057875     0.22318115     74             70                   145 
     78000   0.39482652     0.3941367      0.38870033     0.0034032412   56.855018      0.69280553     0.22214184     74             70                   145 
     78100   0.39230951     0.39164055     0.38623862     0.0033653126   56.49257       0.69502092     0.2209005      74             70                   145 
     78200   0.38927162     0.38862643     0.38326606     0.0033209266   56.055113      0.6972228      0.21943891     73             71                   145 
     78300   0.38578841     0.38517076     0.37985806     0.0032697475   55.553531      0.69940891     0.21774145     73             71                   145 
     78400   0.38234553     0.38176275     0.37649706     0.0032116079   55.057757      0.70157681     0.21579693     73             71                   145 
     78500   0.3792823      0.37874405     0.37351999     0.0031465662   54.616651      0.70372401     0.21360058     73             71                   145 
     78600   0.3778233      0.37734746     0.37214267     0.0030749591   54.406556      0.70584799     0.21115612     73             71                   145 
     78700   0.37867663     0.37828536     0.37306763     0.0029974377   54.529435      0.70794635     0.20847745     73             71                   145 
     78800   0.38167983     0.38139318     0.37613258     0.0029149758   54.961896      0.71001684     0.20558976     73             71                   145 
     78900   0.38595567     0.38578625     0.38046506     0.0028288434   55.577617      0.71205756     0.20252958     73             71                   145 
     79000   0.39030115     0.39025166     0.38486888     0.0027405401   56.203365      0.71406701     0.1993435      73             71                   145 
     79100   0.39370669     0.39377111     0.38833978     0.0026516946   56.693764      0.7160442      0.19608562     73             71                   145 
     79200   0.39527773     0.3954421      0.38998773     0.0025639431   56.919993      0.71798868     0.19281383     73             71                   145 
     79300   0.39447685     0.39472196     0.38927752     0.0024788072   56.804667      0.71990062     0.18958561     73             71                   145 
     79400   0.39170172     0.39200977     0.38660274     0.0023975901   56.405048      0.72178071     0.1864539      73             71                   145 
     79500   0.38794541     0.38830454     0.38294862     0.0023213015   55.864139      0.72363017     0.18346354     73             71                   145 
     79600   0.38379286     0.38419463     0.37889539     0.0022506215   55.266172      0.72545057     0.18064886     73             71                   145 
     79700   0.37960308     0.38004117     0.37479922     0.0021859037   54.662843      0.72724381     0.17803259     73             71                   145 
     79800   0.37570897     0.37617935     0.37099067     0.0021272089   54.102092      0.72901192     0.1756261      73             71                   145 
     79900   0.37255508     0.37305699     0.36791138     0.0020743594   53.647932      0.73075703     0.17343071     73             71                   145 
     80000   0.37097355     0.37151242     0.36638811     0.0020270015   53.420192      0.73248122     0.17143956     73             71                   145 
     80100   0.37172656     0.37231362     0.36717826     0.0019846665   53.528625      0.73418646     0.16963981     73             71                   145 
     80200   0.37468219     0.37532829     0.37015135     0.0019468256   53.954235      0.7358746      0.1680148      73             71                   145 
     80300   0.37878791     0.37949701     0.37426256     0.0019130195   54.54546       0.73754728     0.16654964     73             71                   145 
     80400   0.38278087     0.38354706     0.37825676     0.0018842371   55.120445      0.7392063      0.16529198     73             71                   145 
     80500   0.38609989     0.386913       0.38157627     0.0018608664   55.598384      0.74085389     0.1642637      73             71                   145 
     80600   0.38859165     0.38944028     0.38406869     0.0018430227   55.957198      0.74249237     0.16347425     73             71                   145 
     80700   0.39009221     0.39096343     0.38557083     0.0018310921   56.173279      0.74412424     0.16294427     73             71                   145 
     80800   0.39056209     0.39144196     0.38604276     0.0018258005   56.240941      0.74575224     0.16270866     73             71                   145 
     80900   0.38996895     0.39084214     0.38545122     0.0018282893   56.155529      0.74737956     0.16281952     74             70                   145 
     81000   0.38822132     0.38907023     0.38370374     0.0018401946   55.90387       0.74901002     0.16334877     74             70                   145 
     81100   0.38561976     0.38642661     0.38109659     0.0018637217   55.529245      0.75064824     0.16438967     73             71                   145 
     81200   0.38272511     0.38347321     0.37818393     0.0019016972   55.112416      0.75229989     0.16605604     73             71                   145 
     81300   0.38034008     0.38101486     0.37575949     0.0019575638   54.768972      0.75397188     0.16847752     73             71                   145 
     81400   0.37938115     0.37997043     0.37472946     0.0020352633   54.630885      0.75567241     0.17178859     73             71                   145 
     81500   0.38032323     0.38081407     0.37556146     0.0021388468   54.766545      0.75741101     0.17610587     73             71                   145 
     81600   0.38262282     0.3829954      0.37771271     0.0022713283   55.097685      0.75919804     0.18147799     73             71                   145 
     81700   0.38529757     0.38552305     0.38020549     0.0024348588   55.482851      0.76104408     0.18789745     73             71                   145 
     81800   0.38705581     0.38709649     0.38175723     0.0026292295   55.736036      0.76295913     0.19525324     73             71                   145 
     81900   0.38699607     0.38681183     0.38147649     0.0028506351   55.727434      0.76495148     0.20330816     73             71                   145 
     82000   0.38451489     0.38406939     0.37877188     0.0030911859   55.370144      0.76702646     0.21171253     73             71                   145 
     82100   0.37953331     0.37880117     0.37357633     0.003339516    54.652797      0.76918552     0.22005222     73             71                   145 
     82200   0.3725796      0.37155237     0.36642751     0.0035825789   53.651462      0.77142593     0.22791971     73             71                   145 
     82300   0.36714481     0.36585091     0.36080469     0.0038080798   52.868852      0.77374122     0.23498331     73             71                   145 
     82400   0.36618708     0.36468517     0.35965503     0.0040066173   52.730939      0.77612219     0.24103102     73             71                   145 
     82500   0.37083036     0.36919241     0.36410011     0.0041728013   53.399572      0.77855816     0.2459789      72             72                   145 
     82600   0.3790789      0.37736439     0.37215937     0.0043051952   54.587362      0.78103817     0.24985062     72             72                   145 
     82700   0.38782337     0.38606836     0.38074328     0.0044054404   55.846565      0.78355191     0.25274273     72             72                   145 
     82800   0.39493584     0.39315792     0.38773505     0.0044770906   56.87076       0.78609021     0.25478975     72             72                   145 
     82900   0.39971439     0.39792176     0.39243318     0.0045245545   57.558872      0.78864537     0.25613676     72             72                   145 
     83000   0.40224806     0.40044498     0.3949216      0.0045523335   57.92372       0.79121108     0.25692185     72             72                   145 
     83100   0.40299749     0.40118725     0.39565363     0.0045645684   58.031639      0.79378234     0.25726687     72             72                   145 
     83200   0.40257764     0.4007642      0.39523641     0.0045648295   57.97118       0.79635529     0.25727423     72             72                   145 
     83300   0.40148706     0.39967487     0.39416212     0.0045560648   57.814136      0.79892698     0.25702712     72             72                   145 
     83400   0.40023375     0.39842845     0.39293288     0.0045406371   57.633661      0.80149521     0.25659158     72             72                   145 
     83500   0.39892053     0.39712655     0.39164894     0.0045204136   57.444556      0.80405836     0.25601952     72             72                   145 
     83600   0.39774748     0.39596728     0.39050566     0.004498728    57.275636      0.80661547     0.25540469     72             72                   145 
     83700   0.39720223     0.3954399      0.38998556     0.0044773479   57.197122      0.80916647     0.25479707     72             72                   145 
     83800   0.39800261     0.39626708     0.39080133     0.0044564388   57.312376      0.81171145     0.25420142     72             72                   145 
     83900   0.40041618     0.39871808     0.39321853     0.0044361641   57.65993       0.81425056     0.25362251     72             72                   145 
     84000   0.40400365     0.4023504      0.39680074     0.0044166759   58.176526      0.81678397     0.25306482     72             72                   145 
     84100   0.40768224     0.40607359     0.40047258     0.0043980591   58.706242      0.81931193     0.2525309      72             72                   145 
     84200   0.40957252     0.40799514     0.40236762     0.0043802651   58.978443      0.82183467     0.25201953     72             72                   145 
     84300   0.41054362     0.40899019     0.40334894     0.0043633461   59.118282      0.82435241     0.25153234     72             72                   145 
     84400   0.4109853      0.40945116     0.40380356     0.0043473576   59.181883      0.8268654      0.25107108     72             72                   145 
     84500   0.41107493     0.40955663     0.40390757     0.0043323518   59.194789      0.82937392     0.25063739     72             72                   145 
     84600   0.41090674     0.40940144     0.40375453     0.004318378    59.170571      0.83187824     0.25023285     73             71                   145 
     84700   0.41036108     0.40886504     0.40322552     0.004305483    59.091996      0.83437868     0.24985897     73             71                   145 
     84800   0.40929099     0.40779941     0.40217459     0.0042937107   58.937903      0.83687553     0.24951715     73             71                   145 
     84900   0.40756077     0.40606784     0.40046691     0.0042831022   58.688751      0.83936913     0.24920871     73             71                   145 
     85000   0.40561661     0.40411962     0.39854556     0.0042736949   58.408792      0.84185982     0.24893488     73             71                   145 
     85100   0.40354159     0.40203838     0.39649302     0.004265522    58.109989      0.84434795     0.24869674     73             71                   145 
     85200   0.40194019     0.40043057     0.39490739     0.0042607958   57.879387      0.84683408     0.24855893     73             71                   145 
     85300   0.40145426     0.39993929     0.39442289     0.0042627213   57.809413      0.84931977     0.24861508     73             71                   145 
     85400   0.40200147     0.40048046     0.39495659     0.0042724535   57.888211      0.85180714     0.24889873     73             71                   145 
     85500   0.40276939     0.40123482     0.39570054     0.0042911306   57.998793      0.85429862     0.24944217     73             71                   145 
     85600   0.4029728      0.40141102     0.39587432     0.0043193578   58.028083      0.85679689     0.25026124     73             71                   145 
     85700   0.40231312     0.4007068      0.39517981     0.004358743    57.93309       0.85930491     0.25139963     73             71                   145 
     85800   0.40078213     0.39911194     0.39360694     0.0044111774   57.712627      0.86182612     0.25290724     73             71                   145 
     85900   0.39891816     0.3971665      0.39168834     0.004478664    57.444216      0.86436445     0.25483451     74             70                   145 
     86000   0.39720283     0.39535341     0.38990026     0.0045632398   57.197207      0.86692437     0.25722942     74             70                   145 
     86100   0.39607697     0.39411462     0.38867855     0.0046668542   57.035084      0.86951074     0.2601334      73             71                   145 
     86200   0.39583691     0.39374679     0.3883158      0.0047911993   57.000515      0.87212883     0.26357615     73             71                   145 
     86300   0.39669384     0.39446137     0.38902053     0.0049374908   57.123913      0.8747841      0.26756984     73             71                   145 
     86400   0.39861531     0.3962252      0.39076003     0.005106214    57.400605      0.87748203     0.27210311     73             71                   145 
     86500   0.40111021     0.39854423     0.39304707     0.0052968606   57.75987       0.88022783     0.27713621     73             71                   145 
     86600   0.40388554     0.40112518     0.39559242     0.0055077055   58.159518      0.88302619     0.28259818     73             71                   145 
     86700   0.40684244     0.4038716      0.39830095     0.0057356801   58.585312      0.88588089     0.28838752     73             71                   145 
     86800   0.40985987     0.40666621     0.40105703     0.0059762294   59.019822      0.88879459     0.29437277     73             71                   145 
     86900   0.41218979     0.4087614      0.40312332     0.006223781    59.355329      0.89176851     0.30040776     73             71                   145 
     87000   0.41410866     0.4104418      0.40478053     0.0064722013   59.631647      0.89480242     0.30634444     73             71                   145 
     87100   0.41603596     0.41213617     0.40645154     0.0067152113   59.909178      0.89789461     0.31204257     73             71                   145 
     87200   0.41785425     0.4137322      0.40802555     0.0069469499   60.171012      0.90104207     0.31738112     73             71                   145 
     87300   0.41918298     0.4148517      0.4091296      0.0071624617   60.362349      0.90424071     0.3222665      73             71                   145 
     87400   0.41950874     0.41498143     0.40925755     0.007358029    60.409259      0.90748568     0.32663653     73             71                   145 
     87500   0.41848004     0.41376983     0.40806266     0.0075313113   60.261125      0.91077162     0.33046031     73             71                   145 
     87600   0.41574699     0.41086558     0.40519847     0.0076813021   59.867567      0.91409305     0.33373475     74             70                   145 
     87700   0.41149456     0.40645479     0.40084852     0.0078081507   59.255217      0.91744455     0.3364791      74             70                   145 
     87800   0.40683853     0.40165998     0.39611984     0.0079129077   58.584749      0.92082098     0.33872874     73             71                   145 
     87900   0.40276551     0.39747295     0.39199057     0.0079972446   57.998233      0.92421762     0.34052907     73             71                   145 
     88000   0.39997297     0.39459402     0.38915135     0.0080631883   57.596108      0.92763023     0.34193015     73             71                   145 
     88100   0.39876153     0.39332369     0.38789854     0.0081129166   57.421661      0.93105507     0.34298293     73             71                   145 
     88200   0.39913893     0.39366754     0.38823764     0.0081486077   57.476007      0.93448889     0.34373654     73             71                   145 
     88300   0.40080994     0.39532617     0.3898734      0.0081723378   57.716632      0.93792895     0.34423669     73             71                   145 
     88400   0.40374319     0.39826606     0.39277273     0.0081860182   58.139019      0.94137292     0.34452469     73             71                   145 
     88500   0.40770891     0.40225409     0.39670576     0.0081913645   58.710083      0.94481886     0.34463718     73             71                   145 
     88600   0.41186541     0.40643944     0.40083338     0.0081915804   59.308619      0.94826528     0.34464172     73             71                   145 
     88700   0.41489074     0.40948593     0.40383785     0.0081915804   59.744267      0.95171169     0.34464172     73             71                   145 
     88800   0.41582387     0.41042558     0.40476454     0.0081915804   59.878637      0.95515811     0.34464172     73             71                   145 
     88900   0.41453488     0.40912758     0.40348444     0.0081915804   59.693023      0.95860453     0.34464172     73             71                   145 
     89000   0.41203463     0.40660984     0.40100143     0.0081915804   59.332987      0.96205094     0.34464172     73             71                   145 
     89100   0.40979745     0.40435702     0.39877968     0.0081915804   59.010833      0.96549736     0.34464172     73             71                   145 
     89200   0.40918016     0.40373541     0.39816665     0.0081915804   58.921943      0.96894378     0.34464172     73             71                   145 
     89300   0.41060711     0.40517234     0.39958375     0.0081915804   59.127423      0.9723902      0.34464172     74             70                   145 
     89400   0.41339605     0.40798079     0.40235346     0.0081915804   59.529031      0.97583661     0.34464172     74             70                   145 
     89500   0.41650392     0.41111039     0.4054399      0.0081915804   59.976564      0.97928303     0.34464172     74             70                   145 
     89600   0.41876768     0.41338998     0.40768804     0.0081915804   60.302546      0.98272945     0.34464172     74             70                   145 
     89700   0.41921559     0.41384102     0.40813287     0.0081915804   60.367045      0.98617586     0.34464172     74             70                   145 
     89800   0.41711979     0.41173056     0.40605152     0.0081915804   60.065249      0.98962228     0.34464172     74             70                   145 
     89900   0.41200114     0.40657612     0.40096817     0.0081915804   59.328164      0.9930687      0.34464172     74             70                   145 
     90000   0.40419383     0.39871421     0.3932147      0.0081915804   58.203911      0.99651512     0.34464172     74             70                   145 
     90100   0.39531954     0.38977786     0.38440162     0.0081915804   56.926014      0.99996153     0.34464172     74             70                   145 
     90200   0.38723764     0.38163944     0.37637545     0.0081915804   55.76222       1.003408       0.34464172     74             70                   145 
     90300   0.38158122     0.37594347     0.37075804     0.0081915804   54.947696      1.0068544      0.34464172     74             70                   145 
     90400   0.37950981     0.37385757     0.36870092     0.0081915804   54.649412      1.0103008      0.34464172     74             70                   145 
     90500   0.38103781     0.37539627     0.37021839     0.0081915804   54.869445      1.0137472      0.34464172     74             70                   145 
     90600   0.38565813     0.38004889     0.37480684     0.0081915804   55.53477       1.0171936      0.34464172     74             70                   145 
     90700   0.39258863     0.38702785     0.38168954     0.0081915804   56.532762      1.02064        0.34464172     74             70                   145 
     90800   0.40078287     0.3952794      0.38982727     0.0081915804   57.712734      1.0240865      0.34464172     74             70                   145 
     90900   0.40894888     0.40350251     0.39793696     0.0081915804   58.888639      1.0275329      0.34464172     74             70                   145 
     91000   0.41568699     0.41028774     0.4046286      0.0081915804   59.858927      1.0309793      0.34464172     74             70                   145 
     91100   0.41970379     0.41433264     0.4086177      0.0081915804   60.437346      1.0344257      0.34464172     74             70                   145 
     91200   0.42004432     0.41467554     0.40895588     0.0081915804   60.486382      1.0378721      0.34464172     75             69                   145 
     91300   0.41670758     0.41131547     0.40564215     0.0081915804   60.005892      1.0413185      0.34464172     75             69                   145 
     91400   0.4107198      0.40528582     0.39969567     0.0081915804   59.143651      1.044765       0.34464172     75             69                   145 
     91500   0.40400625     0.39852532     0.39302842     0.0081915804   58.1769        1.0482114      0.34464172     75             69                   145 
     91600   0.39847036     0.39295072     0.38753071     0.0081915804   57.379732      1.0516578      0.34464172     75             69                   145 
     91700   0.39482955     0.38928445     0.38391501     0.0081915804   56.855456      1.0551042      0.34464172     75             69                   145 
     91800   0.3927262      0.38716639     0.38182616     0.0081915804   56.552572      1.0585506      0.34464172     75             69                   145 
     91900   0.39187142     0.38630563     0.38097728     0.0081915804   56.429484      1.061997       0.34464172     75             69                   145 
     92000   0.39239201     0.38682986     0.38149427     0.0081915804   56.504449      1.0654435      0.34464172     75             69                   145 
     92100   0.3945113      0.38896397     0.38359895     0.0081915804   56.809627      1.0688899      0.34464172     75             69                   145 
     92200   0.39793064     0.39240723     0.38699471     0.0081915804   57.302012      1.0723363      0.34464172     75             69                   145 
     92300   0.40193339     0.39643796     0.39096985     0.0081915804   57.878408      1.0757827      0.34464172     75             69                   145 
     92400   0.40573958     0.40027078     0.3947498      0.0081915804   58.4265        1.0792291      0.34464172     75             69                   145 
     92500   0.40894567     0.40349928     0.39793377     0.0081915804   58.888176      1.0826755      0.34464172     75             69                   145 
     92600   0.41158217     0.40615422     0.4005521      0.0081915804   59.267833      1.086122       0.34464172     74             70                   145 
     92700   0.41381078     0.40839842     0.40276534     0.0081915804   59.588753      1.0895684      0.34464172     74             70                   145 
     92800   0.41576512     0.41036642     0.40470619     0.0081915804   59.870177      1.0930148      0.34464172     74             70                   145 
     92900   0.41768559     0.41230032     0.40661342     0.0081915804   60.146726      1.0964612      0.34464172     75             69                   145 
     93000   0.41992205     0.41455242     0.40883446     0.0081915804   60.468775      1.0999076      0.34464172     75             69                   145 
     93100   0.42286122     0.41751214     0.41175335     0.0081915804   60.892015      1.1033541      0.34464172     75             69                   145 
     93200   0.42654686     0.42122356     0.41541358     0.0081915804   61.422748      1.1068005      0.34464172     74             70                   145 
     93300   0.43047119     0.42517533     0.41931085     0.0081915804   61.987852      1.1102469      0.34464172     74             70                   145 
     93400   0.43378314     0.42851044     0.42259995     0.0081915804   62.464772      1.1136933      0.34464172     74             70                   145 
     93500   0.43547502     0.43021415     0.42428017     0.0081915804   62.708403      1.1171397      0.34464172     74             70                   145 
     93600   0.4347149      0.42944872     0.42352529     0.0081915804   62.598946      1.1205861      0.34464172     74             70                   145 
     93700   0.43122305     0.42593244     0.42005751     0.0081915804   62.096119      1.1240326      0.34464172     74             70                   145 
     93800   0.42536933     0.42003779     0.41424417     0.0081915804   61.253183      1.127479       0.34464172     74             70                   145 
     93900   0.41824083     0.41285944     0.40716483     0.0081915804   60.226679      1.1309254      0.34464172     74             70                   145 
     94000   0.41137965     0.4059491      0.4003498      0.0081927448   59.238669      1.1343719      0.34466622     74             70                   145 
     94100   0.40636774     0.40089553     0.39536594     0.0081992649   58.516955      1.1378191      0.34480334     74             70                   145 
     94200   0.40420209     0.39870149     0.39320216     0.0082123314   58.205101      1.1412684      0.34507797     74             70                   145 
     94300   0.40473998     0.39922223     0.39371572     0.0082329517   58.282557      1.1447212      0.34551093     74             70                   145 
     94400   0.40718612     0.4016558      0.39611572     0.0082622228   58.634801      1.1481792      0.34612459     74             70                   145 
     94500   0.40999063     0.40444028     0.39886179     0.008301318    59.03865       1.1516444      0.34694252     74             70                   145 
     94600   0.41207997     0.40649338     0.40088658     0.0083514634   59.339516      1.1551188      0.34798882     74             70                   145 
     94700   0.41325075     0.40760904     0.40198685     0.0084139013   59.508109      1.158605       0.34928723     74             70                   145 
     94800   0.41369718     0.40798214     0.4023548      0.0084892913   59.572394      1.1621055      0.35084858     74             70                   145 
     94900   0.41347712     0.40767494     0.40205184     0.0085737162   59.540705      1.1656225      0.35258883     74             70                   145 
     95000   0.41287669     0.40697724     0.40136376     0.0086655016   59.454243      1.1691577      0.35447112     74             70                   145 
     95100   0.41244203     0.40644053     0.40083445     0.0087631464   59.391652      1.1727123      0.35646265     74             70                   145 
     95200   0.41284311     0.406742       0.40113177     0.0088641478   59.449408      1.1762872      0.35851101     74             70                   145 
     95300   0.4143608      0.40816829     0.40253839     0.0089647563   59.667956      1.1798825      0.36053983     74             70                   145 
     95400   0.4167826      0.4105107      0.40484848     0.0090597589   60.016695      1.1834975      0.36244517     74             70                   145 
     95500   0.41953855     0.41320217     0.40750283     0.009142346    60.413551      1.1871305      0.36409342     74             70                   145 
     95600   0.42193624     0.41555398     0.4098222      0.0092041416   60.758819      1.190778       0.36532185     74             70                   145 
     95700   0.42318086     0.41677551     0.41102688     0.0092354929   60.938045      1.1944349      0.3659435      74             70                   145 
     95800   0.42255268     0.41615244     0.4104124      0.0092261214   60.847586      1.1980942      0.36575779     74             70                   145 
     95900   0.41972348     0.41336419     0.40766262     0.0091662167   60.440181      1.2017467      0.36456843     74             70                   145 
     96000   0.41511885     0.40884728     0.40320801     0.0090479488   59.777114      1.2053817      0.36220886     74             70                   145 
     96100   0.40957513     0.40344805     0.39788325     0.0088672223   58.978819      1.2089867      0.35857318     74             70                   145 
     96200   0.4039701      0.39804912     0.39255878     0.0086253211   58.171695      1.2125488      0.35364835     74             70                   145 
     96300   0.40028912     0.39464195     0.38919861     0.0083298893   57.641633      1.2160557      0.34753906     74             70                   145 
     96400   0.39892278     0.39360598     0.38817693     0.0079946564   57.44488       1.2194964      0.34047396     74             70                   145 
     96500   0.39921316     0.3942604      0.38882233     0.0076376376   57.486695      1.2228631      0.33278483     74             70                   145 
     96600   0.40037247     0.39579231     0.3903331      0.0072781767   57.653636      1.2261513      0.3248593      74             70                   145 
     96700   0.40162992     0.39740782     0.39192633     0.0069337246   57.834708      1.2293607      0.31707887     74             70                   145 
     96800   0.40205255     0.39815419     0.39266241     0.0066173692   57.895568      1.2324944      0.30976096     74             70                   145 
     96900   0.40071367     0.3970905      0.39161339     0.0063367368   57.702769      1.2355582      0.30312157     74             70                   145 
     97000   0.39745484     0.39405473     0.3886195      0.0060942752   57.233497      1.2385595      0.29726586     74             70                   145 
     97100   0.39284652     0.38962294     0.38424883     0.0058884016   56.569899      1.2415062      0.29220168     74             70                   145 
     97200   0.38810854     0.38502771     0.37971698     0.0057149473   55.88763       1.244406       0.28786583     74             70                   145 
     97300   0.38479783     0.38184236     0.37657556     0.0055684834   55.410887      1.2472656      0.28415314     74             70                   145 
     97400   0.3839381      0.38110353     0.37584692     0.0054433272   55.287087      1.2500907      0.28094171     74             70                   145 
     97500   0.38517685     0.38246158     0.37718625     0.0053342054   55.465466      1.2528857      0.27811145     74             70                   145 
     97600   0.38856466     0.38597203     0.38064828     0.0052366243   55.953311      1.2556538      0.2755559      74             70                   145 
     97700   0.3928382      0.3903663      0.38498193     0.0051470326   56.5687        1.2583974      0.27318853     74             70                   145 
     97800   0.39725703     0.39490139     0.38945447     0.0050628527   57.205012      1.261118       0.27094531     74             70                   145 
     97900   0.40105414     0.39880659     0.39330581     0.0049824366   57.751796      1.2638166      0.26878492     74             70                   145 
     98000   0.40375807     0.40160797     0.39606855     0.0049049822   58.141162      1.2664939      0.26668754     74             70                   145 
     98100   0.40543001     0.4033672      0.39780351     0.0048304274   58.381921      1.2691506      0.26465297     74             70                   145 
     98200   0.40642863     0.40444489     0.39886634     0.0047593324   58.525722      1.2717872      0.26269815     74             70                   145 
     98300   0.40726328     0.40535289     0.39976182     0.0046927551   58.645913      1.2744049      0.26085427     74             70                   145 
     98400   0.40837493     0.4065338      0.40092643     0.0046321218   58.805991      1.2770048      0.25916359     74             70                   145 
     98500   0.41000798     0.40823203     0.40260124     0.0045790992   59.04115       1.2795888      0.25767603     74             70                   145 
     98600   0.41227045     0.41055455     0.40489173     0.0045354711   59.366944      1.2821592      0.25644557     74             70                   145 
     98700   0.4150342      0.41337053     0.40766887     0.0045030238   59.764924      1.2847188      0.2555266      74             70                   145 
     98800   0.41779819     0.41617371     0.41043338     0.0044834421   60.16294       1.287271       0.25497041     74             70                   145 
     98900   0.41998199     0.41837811     0.41260737     0.0044781897   60.477407      1.2898196      0.25482102     74             70                   145 
     99000   0.42104399     0.41943719     0.41365185     0.004488393    60.630335      1.2923688      0.25511115     74             70                   145 
     99100   0.42059939     0.41896272     0.41318392     0.0045147825   60.566312      1.2949233      0.25586001     74             70                   145 
     99200   0.41865996     0.41696625     0.411215       0.0045576524   60.287034      1.2974876      0.2570719      74             70                   145 
     99300   0.41545496     0.41367884     0.40797292     0.0046168346   59.825515      1.3000663      0.25873558     74             70                   145 
     99400   0.41148026     0.40960044     0.40395078     0.004691684    59.253157      1.3026637      0.2608245      74             70                   145 
     99500   0.407469       0.40547048     0.39987778     0.0047810835   58.675536      1.305284       0.26329776     74             70                   145 
     99600   0.40410817     0.40198236     0.39643777     0.0048834409   58.191576      1.3079308      0.26610128     74             70                   145 
     99700   0.40197966     0.39972412     0.39421069     0.0049967042   57.885072      1.3106069      0.26916948     74             70                   145 
     99800   0.40110113     0.39871604     0.39321651     0.0051184116   57.758563      1.3133148      0.27242791     73             71                   145 
     99900   0.40086952     0.39835366     0.39285913     0.0052457786   57.725211      1.3160559      0.27579664     73             71                   145 
    100000   0.40098905     0.39834216     0.39284778     0.0053758194   57.742422      1.3188308      0.27919416     73             71                   145 
    100100   0.40079806     0.39801835     0.39252844     0.0055054942   57.714921      1.3216396      0.28254144     73             71                   145 
    100200   0.39994359     0.39702977     0.3915535      0.0056318645   57.591877      1.3244812      0.2857657      73             71                   145 
    100300   0.3985829      0.3955375      0.39008181     0.00575224     57.395938      1.3273543      0.28880353     73             71                   145 
    100400   0.39731427     0.39414637     0.38870987     0.0058643003   57.213255      1.3302565      0.29160308     73             71                   145 
    100500   0.39557568     0.39229232     0.38688139     0.0059661787   56.962897      1.3331854      0.29412513     73             71                   145 
    100600   0.3945166      0.39113425     0.38573929     0.0060565041   56.810391      1.336138       0.29634323     73             71                   145 
    100700   0.39470893     0.39124894     0.3858524      0.0061344025   56.838087      1.3391112      0.29824291     73             71                   145 
    100800   0.3955255      0.39200524     0.38659827     0.0061994647   56.955672      1.3421018      0.29982034     73             71                   145 
    100900   0.3962159      0.39264751     0.38723168     0.0062516936   57.05509       1.3451066      0.30108065     73             71                   145 
    101000   0.39763463     0.39403586     0.38860088     0.0062914398   57.259387      1.3481224      0.30203622     73             71                   145 
    101100   0.40263211     0.39904        0.393536       0.0063193365   57.979024      1.3511463      0.3027051      73             71                   145 
    101200   0.41267045     0.40913066     0.40348748     0.0063369631   59.424544      1.3541757      0.30312698     73             71                   145 
    101300   0.42464287     0.42117743     0.41536808     0.0063462184   61.148574      1.3572082      0.30334826     73             71                   145 
    101400   0.43400903     0.43060653     0.42466713     0.0063487292   62.4973        1.3602421      0.30340826     73             71                   145 
    101500   0.43864712     0.43527972     0.42927586     0.0063461069   63.165186      1.363276       0.3033456      73             71                   145 
    101600   0.43888488     0.43552547     0.42951822     0.0063398595   63.199422      1.3663087      0.30319625     73             71                   145 
    101700   0.43602085     0.43265008     0.42668249     0.0063313258   62.787003      1.3693397      0.30299212     73             71                   145 
    101800   0.43127949     0.4278829      0.42198107     0.0063240756   62.104246      1.3723687      0.30281859     73             71                   145 
    101900   0.4257627      0.42233159     0.41650632     0.0063200835   61.309829      1.3753963      0.30272299     73             71                   145 
    102000   0.42028928     0.41682699     0.41107766     0.006313074    60.521656      1.3784229      0.30255507     73             71                   145 
    102100   0.41525287     0.41176996     0.40609038     0.0062986808   59.796413      1.3814469      0.30220998     73             71                   145 
    102200   0.41095166     0.40746399     0.4018438      0.0062737129   59.177039      1.3844662      0.30161041     73             71                   145 
    102300   0.40740989     0.40393723     0.39836568     0.0062344819   58.667024      1.3874779      0.30066591     73             71                   145 
    102400   0.40450665     0.40107187     0.39553984     0.0061771019   58.248957      1.3904781      0.2992791      73             71                   145 
    102500   0.40206113     0.39868953     0.39319036     0.0060979345   57.896803      1.3934617      0.29735509     73             71                   145 
    102600   0.39972592     0.39644326     0.39097508     0.0059941069   57.560532      1.3964231      0.29481274     74             70                   145 
    102700   0.39732554     0.39415804     0.38872138     0.0058639852   57.214878      1.3993557      0.29159524     74             70                   145 
    102800   0.39462106     0.39159333     0.38619204     0.005707492    56.825432      1.4022527      0.287678       74             70                   145 
    102900   0.39144753     0.38858142     0.38322167     0.0055262164   56.368444      1.405107       0.28307267     74             70                   145 
    103000   0.38821178     0.38552876     0.38021113     0.0053233326   55.902497      1.407912       0.27782787     74             70                   145 
    103100   0.38542194     0.38294244     0.37766048     0.0051033799   55.50076       1.4106617      0.27202759     74             70                   145 
    103200   0.38377727     0.38152119     0.37625882     0.0048717095   55.263927      1.4133511      0.26578147     74             70                   145 
    103300   0.38356094     0.38154487     0.37628218     0.0046335126   55.232776      1.4159762      0.25920249     74             70                   145 
    103400   0.38431819     0.38254891     0.37727237     0.0043953467   55.341819      1.4185345      0.25245302     74             70                   145 
    103500   0.38522294     0.3836949      0.37840256     0.004163674    55.472104      1.4210253      0.24570973     74             70                   145 
    103600   0.38554523     0.38424197     0.37894208     0.0039442174   55.518513      1.4234493      0.23914672     74             70                   145 
    103700   0.38502028     0.38391884     0.37862341     0.0037415584   55.442921      1.4258093      0.23292187     74             70                   145 
    103800   0.38375153     0.38282643     0.37754607     0.0035589002   55.26022       1.4281093      0.22716526     74             70                   145 
    103900   0.38216244     0.38138936     0.37612882     0.0033980215   55.031392      1.4303545      0.22197142     74             70                   145 
    104000   0.38059326     0.37994986     0.37470918     0.0032592974   54.805429      1.4325508      0.21739322     74             70                   145 
    104100   0.37941592     0.37888392     0.37365794     0.0031413201   54.635892      1.4347044      0.21342245     74             70                   145 
    104200   0.37918265     0.37874893     0.37352481     0.003042789    54.602302      1.4368213      0.21004866     74             70                   145 
    104300   0.3803833      0.38003978     0.37479785     0.0029621182   54.775195      1.4389073      0.20724554     74             70                   145 
    104400   0.38323241     0.38297439     0.37769198     0.0028974426   55.185466      1.4409679      0.20497053     73             71                   145 
    104500   0.38777609     0.38760119     0.38225496     0.0028468054   55.839756      1.4430083      0.20317155     73             71                   145 
    104600   0.39303089     0.39293179     0.38751204     0.0028082897   56.596448      1.4450328      0.20179247     73             71                   145 
    104700   0.39877138     0.39874101     0.39324113     0.002780102    57.423079      1.4470453      0.20077719     73             71                   145 
    104800   0.40383809     0.40386291     0.39829238     0.0027606165   58.152685      1.4490493      0.20007234     73             71                   145 
    104900   0.40709036     0.40715031     0.40153444     0.0027483942   58.621011      1.4510477      0.19962895     73             71                   145 
    105000   0.40792809     0.40800019     0.40237261     0.0027421829   58.741644      1.4530426      0.19940324     73             71                   145 
    105100   0.40665256     0.40671714     0.40110725     0.002740813    58.557969      1.4550363      0.19935343     73             71                   145 
    105200   0.40467192     0.40472265     0.39914027     0.002740813    58.272757      1.4570298      0.19935343     73             71                   145 
    105300   0.40251114     0.40254676     0.39699439     0.002740813    57.961604      1.4590234      0.19935343     73             71                   145 
    105400   0.4005592      0.40058117     0.39505591     0.002740813    57.680525      1.4610169      0.19935343     73             71                   145 
    105500   0.39936752     0.39938116     0.39387245     0.002740813    57.508923      1.4630104      0.19935343     73             71                   145 
    105600   0.39949325     0.39950776     0.39399731     0.002740813    57.527028      1.465004       0.19935343     73             71                   145 
    105700   0.40062883     0.40065128     0.39512506     0.002740813    57.690551      1.4669975      0.19935343     73             71                   145 
    105800   0.40159422     0.40162342     0.39608379     0.002740813    57.829567      1.4689911      0.19935343     73             71                   145 
    105900   0.40159769     0.40162692     0.39608724     0.002740813    57.830068      1.4709846      0.19935343     73             71                   145 
    106000   0.40043202     0.4004531      0.39492961     0.002740813    57.662212      1.4729781      0.19935343     73             71                   145 
    106100   0.39839329     0.39840011     0.39290493     0.002740813    57.368633      1.4749717      0.19935343     73             71                   145 
    106200   0.39645326     0.39644651     0.39097829     0.002740813    57.089269      1.4769652      0.19935343     74             70                   145 
    106300   0.39533999     0.39532546     0.3898727      0.002740813    56.928959      1.4789587      0.19935343     74             70                   145 
    106400   0.39544972     0.39543595     0.38998166     0.002740813    56.944759      1.4809523      0.19935343     74             70                   145 
    106500   0.39654094     0.39653481     0.39106536     0.002740813    57.101896      1.4829458      0.19935343     74             70                   145 
    106600   0.3977875      0.39779008     0.39230333     0.002740813    57.2814        1.4849393      0.19935343     74             70                   145 
    106700   0.39840177     0.39840865     0.39291336     0.002740813    57.369855      1.4869329      0.19935343     74             70                   145 
    106800   0.3981169      0.39812179     0.39263045     0.002740813    57.328833      1.4889264      0.19935343     74             70                   145 
    106900   0.39715463     0.39715279     0.39167482     0.002740813    57.190267      1.4909199      0.19935343     74             70                   145 
    107000   0.39590173     0.39589112     0.39043056     0.002740813    57.009849      1.4929135      0.19935343     74             70                   145 
    107100   0.39480332     0.39478504     0.38933973     0.002740813    56.851678      1.494907       0.19935343     74             70                   145 
    107200   0.39419417     0.39417163     0.38873478     0.002740813    56.763961      1.4969005      0.19935343     74             70                   145 
    107300   0.39409686     0.39407363     0.38863813     0.002740813    56.749947      1.4988941      0.19935343     74             70                   145 
    107400   0.39432812     0.39430652     0.38886781     0.002740813    56.78325       1.5008876      0.19935343     74             70                   145 
    107500   0.39454835     0.39452829     0.38908652     0.002740813    56.814963      1.5028811      0.19935343     74             70                   145 
    107600   0.39437343     0.39435214     0.3889128      0.002740813    56.789773      1.5048747      0.19935343     74             70                   145 
    107700   0.39372081     0.39369495     0.38826468     0.002740813    56.695796      1.5068682      0.19935343     74             70                   145 
    107800   0.39284258     0.39281059     0.38739251     0.002740813    56.569332      1.5088617      0.19935343     74             70                   145 
    107900   0.39248766     0.39245318     0.38704004     0.002740813    56.518223      1.5108553      0.19935343     74             70                   145 
    108000   0.39353866     0.39351153     0.38808379     0.002740813    56.669567      1.5128488      0.19935343     74             70                   145 
    108100   0.39652891     0.39652269     0.39105341     0.002740813    57.100163      1.5148423      0.19935343     74             70                   145 
    108200   0.40127318     0.40130014     0.39576497     0.002740813    57.783338      1.5168359      0.19935343     74             70                   145 
    108300   0.40687497     0.40694111     0.40132813     0.002740813    58.589996      1.5188294      0.19935343     74             70                   145 
    108400   0.41219202     0.41229533     0.4066085      0.002740813    59.355651      1.5208229      0.19935343     74             70                   145 
    108500   0.4163726      0.41650515     0.41076025     0.002740813    59.957655      1.5228165      0.19935343     74             70                   145 
    108600   0.41905588     0.4192072      0.41342503     0.002740813    60.344047      1.52481        0.19935343     74             70                   145 
    108700   0.4202675      0.42042729     0.4146283      0.002740813    60.518521      1.5268035      0.19935343     74             70                   145 
    108800   0.42037167     0.42053219     0.41473174     0.002740813    60.53352       1.5287971      0.19935343     74             70                   145 
    108900   0.41993558     0.42009304     0.41429866     0.002740813    60.470723      1.5307906      0.19935343     74             70                   145 
    109000   0.4195442      0.41969893     0.41390998     0.002740813    60.414365      1.5327841      0.19935343     74             70                   145 
    109100   0.41956535     0.41972022     0.41393098     0.002740813    60.41741       1.5347777      0.19935343     74             70                   145 
    109200   0.42012342     0.4202822      0.41448521     0.002740813    60.497773      1.5367712      0.19935343     74             70                   145 
    109300   0.42085021     0.42101407     0.41520698     0.002740813    60.60243       1.5387647      0.19935343     74             70                   145 
    109400   0.42112801     0.42129382     0.41548287     0.002740813    60.642434      1.5407583      0.19935343     74             70                   145 
    109500   0.42062591     0.4207882      0.41498423     0.002740813    60.570131      1.5427518      0.19935343     74             70                   145 
    109600   0.41936719     0.41952068     0.41373419     0.002740813    60.388876      1.5447454      0.19935343     74             70                   145 
    109700   0.41771096     0.41785287     0.41208938     0.002740813    60.150378      1.5467389      0.19935343     74             70                   145 
    109800   0.41602423     0.41615434     0.41041428     0.0027408149   59.907489      1.5487324      0.19935349     74             70                   145 
    109900   0.4145783      0.41469831     0.40897834     0.0027408085   59.699276      1.550726       0.19935326     74             70                   145 
    110000   0.41337787     0.41348952     0.40778621     0.0027407777   59.526414      1.5527195      0.19935214     74             70                   145 
    110100   0.41208887     0.41219157     0.40650617     0.0027407064   59.340797      1.554713       0.19934955     74             70                   145 
    110200   0.41043445     0.41052571     0.40486329     0.0027405791   59.102561      1.5567065      0.19934492     74             70                   145 
    110300   0.40798335     0.40805767     0.40242929     0.0027403809   58.749602      1.5586999      0.19933771     74             70                   145 
    110400   0.40435689     0.40440614     0.39882812     0.0027400975   58.227392      1.5606932      0.1993274      74             70                   145 
    110500   0.40013036     0.40015044     0.39463113     0.0027397152   57.618772      1.5626864      0.1993135      74             70                   145 
    110600   0.39607016     0.39606235     0.39059942     0.002739221    57.034103      1.5646795      0.19929552     74             70                   145 
    110700   0.39349596     0.39347078     0.38804359     0.0027386022   56.663418      1.5666723      0.19927301     74             70                   145 
    110800   0.39368536     0.39366227     0.38823244     0.0027378466   56.690692      1.5686649      0.19924551     74             70                   145 
    110900   0.39532405     0.39531333     0.38986074     0.0027369416   56.926663      1.5706572      0.19921258     74             70                   145 
    111000   0.3992231      0.39924073     0.39373396     0.0027358743   57.488126      1.5726491      0.19917374     74             70                   145 
    111100   0.40550922     0.40557207     0.39997797     0.0027346307   58.393327      1.5746407      0.19912846     74             70                   145 
    111200   0.41248848     0.41260159     0.40691054     0.0027331956   59.398341      1.5766317      0.19907621     74             70                   145 
    111300   0.41856854     0.41872584     0.41295031     0.0027315518   60.27387       1.5786222      0.19901633     74             70                   145 
    111400   0.42273946     0.42292783     0.41709434     0.0027296799   60.874483      1.580612       0.19894813     74             70                   145 
    111500   0.42459709     0.42480059     0.41894127     0.0027275586   61.14198       1.5826011      0.19887081     74             70                   145 
    111600   0.42430084     0.4245047      0.41864947     0.0027251638   61.099321      1.5845894      0.19878349     75             69                   145 
    111700   0.42218702     0.42237883     0.41655291     0.00272247     60.794931      1.5865767      0.19868522     75             69                   145 
    111800   0.41847797     0.41864691     0.41287247     0.00271945     60.260828      1.588563       0.19857499     75             69                   145 
    111900   0.41326292     0.4133988      0.40769675     0.0027160762   59.50986       1.5905482      0.19845177     75             69                   145 
    112000   0.40622952     0.40632003     0.40071561     0.0027123216   58.49705       1.592532       0.19831455     75             69                   145 
    112100   0.39756245     0.39759657     0.39211248     0.0027081607   57.248994      1.5945144      0.19816238     75             69                   145 
    112200   0.38776929     0.38773958     0.38239145     0.0027035714   55.838778      1.5964952      0.19799441     75             69                   145 
    112300   0.37847362     0.37838401     0.37316492     0.0026985359   54.500201      1.5984743      0.19780994     75             69                   145 
    112400   0.37209479     0.37196615     0.36683558     0.0026930424   53.58165       1.6004514      0.19760849     75             69                   145 
    112500   0.37084397     0.37071262     0.36559934     0.0026870861   53.401532      1.6024264      0.19738984     75             69                   145 
    112600   0.37517699     0.37508244     0.36990889     0.0026806705   54.025487      1.6043991      0.19715406     74             70                   145 
    112700   0.38343465     0.38340481     0.37811646     0.002673808    55.21459       1.6063694      0.19690154     74             70                   145 
    112800   0.39290163     0.39294537     0.38752544     0.0026665207   56.577834      1.6083371      0.19663303     74             70                   145 
    112900   0.39983992     0.39993998     0.39442356     0.0026588404   57.576949      1.610302       0.19634965     74             70                   145 
    113000   0.40445987     0.40460038     0.39901968     0.0026508085   58.242221      1.612264       0.19605286     74             70                   145 
    113100   0.40648227     0.40664537     0.40103647     0.0026424751   58.533447      1.614223       0.19574445     74             70                   145 
    113200   0.40615095     0.40632043     0.40071602     0.0026338981   58.485737      1.6161789      0.19542651     74             70                   145 
    113300   0.40392532     0.40408811     0.39851448     0.0026251418   58.165246      1.6181315      0.1951014      74             70                   145 
    113400   0.4005804      0.4007288      0.3952015      0.0026162749   57.683578      1.6200809      0.19477163     74             70                   145 
    113500   0.39652214     0.39665119     0.39118013     0.0026073689   57.099188      1.622027       0.19443983     74             70                   145 
    113600   0.39291214     0.39302494     0.38760391     0.0025984956   56.579349      1.6239697      0.1941087      74             70                   145 
    113700   0.39032885     0.39043248     0.3850472      0.0025897254   56.207355      1.6259091      0.19378085     74             70                   145 
    113800   0.38895741     0.38906017     0.38369382     0.002581125    56.009867      1.6278453      0.19345881     74             70                   145 
    113900   0.38868214     0.38879146     0.38342882     0.0025727559   55.970228      1.6297783      0.19314492     74             70                   145 
    114000   0.38921282     0.38933405     0.38396392     0.0025646733   56.046646      1.6317083      0.19284129     74             70                   145 
    114100   0.39010687     0.3902422      0.38485955     0.0025569241   56.175389      1.6336352      0.19254973     74             70                   145 
    114200   0.39070246     0.39084944     0.38545841     0.0025495471   56.261154      1.6355593      0.19227177     74             70                   145 
    114300   0.39013557     0.39028566     0.38490241     0.0025425722   56.179522      1.6374807      0.19200859     74             70                   145 
    114400   0.38787103     0.38801193     0.38266004     0.0025360206   55.853429      1.6393995      0.19176104     74             70                   145 
    114500   0.38389613     0.38401543     0.37871867     0.0025299048   55.281043      1.641316       0.19152968     74             70                   145 
    114600   0.37900669     0.37909756     0.37386863     0.0025242296   54.576964      1.6432302      0.19131474     74             70                   145 
    114700   0.37438613     0.37444999     0.36928516     0.0025189923   53.911603      1.6451423      0.19111617     74             70                   145 
    114800   0.37105302     0.37109845     0.36597985     0.0025141843   53.431635      1.6470526      0.19093368     74             70                   145 
    114900   0.36949789     0.3695369      0.36443984     0.0025097913   53.207696      1.648961       0.1907668      74             70                   145 
    115000   0.36991359     0.36995956     0.36485667     0.002505795    53.267558      1.6508679      0.19061487     74             70                   145 
    115100   0.37258793     0.37265627     0.36751618     0.0025021741   53.652662      1.6527734      0.1904771      74             70                   145 
    115200   0.37758874     0.37769536     0.37248577     0.0024989049   54.372778      1.6546775      0.19035262     74             70                   145 
    115300   0.38434317     0.38450001     0.37919656     0.0024959626   55.345416      1.6565805      0.19024052     74             70                   145 
    115400   0.39170124     0.39191221     0.38650653     0.0024933221   56.404978      1.6584824      0.19013987     74             70                   145 
    115500   0.39845525     0.39871585     0.39321632     0.0024909588   57.377555      1.6603833      0.19004974     74             70                   145 
    115600   0.40382414     0.40412443     0.3985503      0.0024888488   58.150677      1.6622834      0.18996923     74             70                   145 
    115700   0.4075622      0.40789053     0.40226445     0.0024869701   58.688956      1.6641827      0.18989751     73             71                   145 
    115800   0.40968261     0.41002746     0.40437191     0.0024853019   58.994296      1.6660814      0.18983381     73             71                   145 
    115900   0.41018408     0.41053393     0.4048714      0.0024838257   59.066507      1.6679794      0.18977743     73             71                   145 
    116000   0.40908246     0.40942593     0.40377868     0.002482525    58.907875      1.6698769      0.18972773     73             71                   145 
    116100   0.40647566     0.40680205     0.40119099     0.002481385    58.532494      1.671774       0.18968416     73             71                   145 
    116200   0.40289152     0.40319386     0.39763257     0.0024803931   58.016379      1.6736707      0.18964625     73             71                   145 
    116300   0.3994414      0.39972048     0.39420709     0.0024795384   57.519561      1.6755669      0.18961357     73             71                   145 
    116400   0.39723241     0.39749678     0.39201407     0.0024788114   57.201467      1.6774629      0.18958577     73             71                   145 
    116500   0.39681033     0.39707236     0.3915955      0.0024782043   57.140687      1.6793587      0.18956255     73             71                   145 
    116600   0.39762567     0.3978939      0.39240571     0.0024777102   57.258096      1.6812542      0.18954366     73             71                   145 
    116700   0.39853546     0.39881045     0.39330962     0.0024773233   57.389107      1.6831496      0.18952886     73             71                   145 
    116800   0.39841317     0.3986876      0.39318846     0.0024770389   57.371497      1.6850448      0.18951798     73             71                   145 
    116900   0.3967051      0.39696777     0.39149235     0.0024768525   57.125535      1.6869399      0.18951085     73             71                   145 
    117000   0.39325196     0.39349057     0.38806312     0.0024767602   56.628282      1.688835       0.18950732     73             71                   145 
    117100   0.38876119     0.38896841     0.38360333     0.002476748    55.981612      1.6907301      0.18950685     73             71                   145 
    117200   0.38468796     0.3848667      0.37955819     0.002476748    55.395066      1.6926252      0.18950685     73             71                   145 
    117300   0.38265325     0.38281776     0.37753751     0.002476748    55.102068      1.6945202      0.18950685     73             71                   145 
    117400   0.38351331     0.38368383     0.37839164     0.002476748    55.225916      1.6964153      0.18950685     73             71                   145 
    117500   0.38692241     0.38711677     0.38177723     0.002476748    55.716826      1.6983104      0.18950685     73             71                   145 
    117600   0.39171042     0.39193827     0.38653222     0.002476748    56.406301      1.7002054      0.18950685     73             71                   145 
    117700   0.39679504     0.39705844     0.39158177     0.002476748    57.138485      1.7021005      0.18950685     73             71                   145 
    117800   0.40148536     0.40178157     0.39623975     0.002476748    57.813892      1.7039956      0.18950685     73             71                   145 
    117900   0.40577536     0.40610156     0.40050016     0.002476748    58.431651      1.7058906      0.18950685     73             71                   145 
    118000   0.40968074     0.41003425     0.40437861     0.002476748    58.994027      1.7077857      0.18950685     73             71                   145 
    118100   0.41323768     0.41361607     0.40791102     0.002476748    59.506226      1.7096808      0.18950685     73             71                   145 
    118200   0.41669115     0.41709369     0.41134067     0.002476748    60.003526      1.7115758      0.18950685     73             71                   145 
    118300   0.42044704     0.42087584     0.41507066     0.002476748    60.544374      1.7134709      0.18950685     73             71                   145 
    118400   0.42484567     0.42530523     0.41943895     0.002476748    61.177777      1.715366       0.18950685     73             71                   145 
    118500   0.4294081      0.42989956     0.42396992     0.002476748    61.834766      1.7172611      0.18950685     73             71                   145 
    118600   0.43335748     0.43387656     0.42789206     0.002476748    62.403477      1.7191561      0.18950685     73             71                   145 
    118700   0.43603654     0.43657436     0.43055264     0.002476748    62.789262      1.7210512      0.18950685     73             71                   145 
    118800   0.43726751     0.43781393     0.43177512     0.002476748    62.966521      1.7229463      0.18950685     73             71                   145 
    118900   0.43709625     0.43764148     0.43160505     0.002476748    62.94186       1.7248413      0.18950685     73             71                   145 
    119000   0.43579313     0.43632924     0.43031091     0.002476748    62.75421       1.7267364      0.18950685     73             71                   145 
    119100   0.43366744     0.43418869     0.42819988     0.002476748    62.448111      1.7286315      0.18950685     73             71                   145 
    119200   0.43087155     0.43137325     0.42542328     0.002476748    62.045504      1.7305265      0.18950685     73             71                   145 
    119300   0.42780651     0.42828677     0.42237937     0.002476748    61.604137      1.7324216      0.18950685     73             71                   145 
    119400   0.42526999     0.42573252     0.41986035     0.002476748    61.238879      1.7343167      0.18950685     73             71                   145 
    119500   0.42396656     0.42441998     0.41856591     0.002476748    61.051185      1.7362117      0.18950685     72             72                   145 
    119600   0.42443928     0.424896       0.41903537     0.002476748    61.119257      1.7381068      0.18950685     72             72                   145 
    119700   0.42641323     0.42688376     0.42099571     0.002476748    61.403506      1.7400019      0.18950685     72             72                   145 
    119800   0.42929967     0.42979037     0.42386223     0.002476748    61.819152      1.7418969      0.18950685     72             72                   145 
    119900   0.43253827     0.43305163     0.4270785      0.002476748    62.285511      1.743792       0.18950685     72             72                   145 
    120000   0.43595348     0.43649072     0.43047016     0.002476748    62.777302      1.7456871      0.18950685     72             72                   145 
    120100   0.43945198     0.44001368     0.43394453     0.002476748    63.281085      1.7475821      0.18950685     72             72                   145 
    120200   0.44276226     0.44334711     0.43723198     0.002476748    63.757765      1.7494772      0.18950685     72             72                   145 
    120300   0.44529039     0.44589292     0.43974268     0.002476748    64.121816      1.7513723      0.18950685     72             72                   145 
    120400   0.44639424     0.44700449     0.44083892     0.002476748    64.280771      1.7532674      0.18950685     72             72                   145 
    120500   0.44565839     0.44626349     0.44010813     0.002476748    64.174808      1.7551624      0.18950685     72             72                   145 
    120600   0.44287893     0.4434646      0.43734785     0.002476748    63.774566      1.7570575      0.18950685     72             72                   145 
    120700   0.43781879     0.43836907     0.4323226      0.002476748    63.045906      1.7589526      0.18950685     72             72                   145 
    120800   0.43076597     0.43126694     0.42531843     0.002476748    62.0303        1.7608476      0.18950685     72             72                   145 
    120900   0.42238245     0.42282478     0.41699271     0.002476748    60.823072      1.7627427      0.18950685     72             72                   145 
    121000   0.4132143      0.41359252     0.4078878      0.002476748    59.502859      1.7646378      0.18950685     72             72                   145 
    121100   0.40380157     0.40411397     0.39853998     0.002476748    58.147426      1.7665328      0.18950685     72             72                   145 
    121200   0.39472624     0.39497518     0.38952725     0.002476748    56.840579      1.7684279      0.18950685     72             72                   145 
    121300   0.38725442     0.3874511      0.38210695     0.002476748    55.764636      1.770323       0.18950685     72             72                   145 
    121400   0.38343246     0.38360242     0.37831135     0.002476748    55.214274      1.772218       0.18950685     72             72                   145 
    121500   0.38477514     0.38495448     0.37964477     0.002476748    55.40762       1.7741131      0.18950685     72             72                   145 
    121600   0.39050036     0.39071975     0.38533051     0.002476748    56.232052      1.7760082      0.18950685     72             72                   145 
    121700   0.39790888     0.39818007     0.39268793     0.002476748    57.298879      1.7779032      0.18950685     72             72                   145 
    121800   0.40437018     0.40468656     0.39910468     0.002476748    58.229306      1.7797983      0.18950685     72             72                   145 
    121900   0.40831694     0.40866092     0.40302421     0.002476748    58.79764       1.7816934      0.18950685     72             72                   145 
    122000   0.40952336     0.40987577     0.40422231     0.002476748    58.971363      1.7835884      0.18950685     72             72                   145 
    122100   0.40842788     0.40877263     0.40313438     0.002476748    58.813614      1.7854835      0.18950685     72             72                   145 
    122200   0.40562031     0.40594543     0.40034618     0.002476748    58.409325      1.7873786      0.18950685     72             72                   145 
    122300   0.40193291     0.40223225     0.39668422     0.002476748    57.87834       1.7892737      0.18950685     72             72                   145 
    122400   0.39844816     0.39872312     0.39322349     0.002476748    57.376535      1.7911687      0.18950685     72             72                   145 
    122500   0.39613982     0.39639864     0.39093108     0.002476748    57.044134      1.7930638      0.18950685     72             72                   145 
    122600   0.39491304     0.39516328     0.38971275     0.002476748    56.867478      1.7949589      0.18950685     72             72                   145 
    122700   0.39453281     0.39478039     0.38933515     0.002476748    56.812725      1.7968539      0.18950685     72             72                   145 
    122800   0.39562066     0.39587537     0.39041502     0.0024772252   56.969375      1.798749       0.18952511     72             72                   145 
    122900   0.39751043     0.39777294     0.39228642     0.0024825639   57.241503      1.8006451      0.18972922     71             73                   145 
    123000   0.39979482     0.40006048     0.39454241     0.0024952072   57.570454      1.8025445      0.19021174     71             73                   145 
    123100   0.40183548     0.40209311     0.396547       0.0025172065   57.864309      1.8044505      0.19104841     71             73                   145 
    123200   0.40270101     0.40293037     0.39737271     0.0025510528   57.988946      1.806367       0.19232853     71             73                   145 
    123300   0.40157309     0.40174522     0.39620391     0.0025997142   57.826525      1.8082989      0.19415421     71             73                   145 
    123400   0.39825026     0.3983313      0.39283707     0.0026666319   57.348037      1.8102523      0.19663713     71             73                   145 
    123500   0.39346203     0.39341933     0.38799286     0.0027556377   56.658532      1.8122342      0.19989184     71             73                   145 
    123600   0.38835808     0.38816298     0.38280901     0.0028707417   55.923564      1.814253       0.20402391     71             73                   145 
    123700   0.38415918     0.38378769     0.37849407     0.0030157359   55.318922      1.8163179      0.20911282     71             73                   145 
    123800   0.38154041     0.38097029     0.37571553     0.0031935676   54.941819      1.8184386      0.21518999     71             73                   145 
    123900   0.38104495     0.38025649     0.37501157     0.003405482    54.870473      1.8206248      0.22221496     71             73                   145 
    124000   0.38302142     0.38199876     0.37672981     0.0036500805   55.155084      1.8228856      0.23005688     71             73                   145 
    124100   0.38716113     0.38589111     0.38056847     0.0039225823   55.751203      1.825228       0.23848992     71             73                   145 
    124200   0.3925881      0.39105942     0.3856655      0.0042150982   56.532687      1.8276564      0.24722242     71             73                   145 
    124300   0.39814288     0.3963467      0.39087985     0.0045172216   57.332575      1.8301723      0.25592912     71             73                   145 
    124400   0.40280321     0.40073602     0.39520863     0.0048166303   58.003662      1.8327738      0.26427474     71             73                   145 
    124500   0.40599907     0.40366636     0.39809855     0.0051005267   58.463866      1.8354556      0.27195154     71             73                   145 
    124600   0.40762235     0.40504165     0.39945487     0.005356289    58.697618      1.8382096      0.27868655     71             73                   145 
    124700   0.4079119      0.40510981     0.39952209     0.0055766208   58.739313      1.8410258      0.28436069     71             73                   145 
    124800   0.40699204     0.40399976     0.39842735     0.0057578455   58.606854      1.8438932      0.28894422     71             73                   145 
    124900   0.4050157      0.40186617     0.39632319     0.0058993051   58.322261      1.8468012      0.29247209     71             73                   145 
    125000   0.40250512     0.39923337     0.39372671     0.0060025159   57.960737      1.8497394      0.29501946     71             73                   145 
    125100   0.40004708     0.39668944     0.39121786     0.0060702784   57.60678       1.8526986      0.29668002     71             73                   145 
    125200   0.39839714     0.39499179     0.38954363     0.0061059435   57.369188      1.8556704      0.2975503      71             73                   145 
    125300   0.39839596     0.39498354     0.38953549     0.0061129172   57.369019      1.8586473      0.29772017     71             73                   145 
    125400   0.40033284     0.39695274     0.39147753     0.0060943946   57.647929      1.8616227      0.29726877     72             72                   145 
    125500   0.40390377     0.40059033     0.39506494     0.0060532792   58.162142      1.8645908      0.29626432     72             72                   145 
    125600   0.4084515      0.40523178     0.39964237     0.0059922238   58.817017      1.8675463      0.29476642     72             72                   145 
    125700   0.41337707     0.41026845     0.40460957     0.0059166208   59.526298      1.8704849      0.29290101     72             72                   145 
    125800   0.41828761     0.41529968     0.40957141     0.0058314543   60.233415      1.8734035      0.2907853      72             72                   145 
    125900   0.42285548     0.41999454     0.41420151     0.0057377235   60.891189      1.8762998      0.28843889     72             72                   145 
    126000   0.4266859      0.42395396     0.41810632     0.0056369218   61.44277       1.8791716      0.28589398     72             72                   145 
    126100   0.42937097     0.42676521     0.4208788      0.0055309964   61.82942       1.8820172      0.28319507     72             72                   145 
    126200   0.43065209     0.42816557     0.42225984     0.0054222357   62.013901      1.8848352      0.28039689     72             72                   145 
    126300   0.43050558     0.42812869     0.42222347     0.0053131087   61.992804      1.887625       0.27756094     72             72                   145 
    126400   0.42912413     0.4268461      0.42095857     0.0052060819   61.793874      1.8903865      0.27475114     72             72                   145 
    126500   0.42684434     0.42465445     0.41879715     0.0051034381   61.465585      1.8931203      0.27202914     72             72                   145 
    126600   0.42409244     0.42198097     0.41616054     0.005007126    61.069312      1.8958276      0.26945004     72             72                   145 
    126700   0.42118311     0.41914099     0.41335974     0.0049186587   60.650367      1.8985099      0.26705908     72             72                   145 
    126800   0.41830706     0.41632553     0.41058311     0.0048390685   60.236216      1.9011695      0.26488959     72             72                   145 
    126900   0.41499687     0.41306334     0.40736591     0.004768914    59.759549      1.9038085      0.26296246     72             72                   145 
    127000   0.41053418     0.40863087     0.40299458     0.0047083286   59.116922      1.9064296      0.26128675     72             72                   145 
    127100   0.40567916     0.40379385     0.39822428     0.0046570947   58.417799      1.9090351      0.25986126     72             72                   145 
    127200   0.40046754     0.39858875     0.39309097     0.0046147265   57.667326      1.9116276      0.25867651     72             72                   145 
    127300   0.39492931     0.39304647     0.38762514     0.0045805257   56.869821      1.9142094      0.25771617     72             72                   145 
    127400   0.38917177     0.38727593     0.38193419     0.0045536279   56.040734      1.9167826      0.25695837     72             72                   145 
    127500   0.38354607     0.38163173     0.37636785     0.0045330727   55.230633      1.9193492      0.25637776     72             72                   145 
    127600   0.37882598     0.37689406     0.37169552     0.0045178606   54.55094       1.9219107      0.25594722     72             72                   145 
    127700   0.37588827     0.37394683     0.36878894     0.0045069961   54.127911      1.9244685      0.25563929     72             72                   145 
    127800   0.37530231     0.37336435     0.3682145      0.0044995179   54.043532      1.9270238      0.25542711     72             72                   145 
    127900   0.3768992      0.37497748     0.36980538     0.0044945162   54.273485      1.9295773      0.2552851      72             72                   145 
    128000   0.37974686     0.37784848     0.37263677     0.0044911409   54.683548      1.9321296      0.25518923     72             72                   145 
    128100   0.38281819     0.38094386     0.37568946     0.0044886012   55.125819      1.9346811      0.25511707     72             72                   145 
    128200   0.38568787     0.38383608     0.37854179     0.0044861573   55.539053      1.937232       0.25504761     72             72                   145 
    128300   0.38820358     0.3863723      0.38104303     0.0044832822   55.901315      1.939782       0.25496587     72             72                   145 
    128400   0.39039524     0.38858251     0.38322275     0.0044801073   56.216914      1.9423313      0.25487557     72             72                   145 
    128500   0.39235233     0.3905575      0.3851705      0.0044759489   56.498736      1.9448795      0.25475725     72             72                   145 
    128600   0.39427451     0.39249916     0.38708538     0.0044699949   56.775529      1.9474262      0.25458776     72             72                   145 
    128700   0.39661883     0.39486857     0.38942211     0.0044614139   57.113111      1.949971       0.25434328     72             72                   145 
    128800   0.40011156     0.39839796     0.39290282     0.004449349    57.616064      1.9525128      0.25399913     72             72                   145 
    128900   0.40529118     0.40363046     0.39806315     0.0044329202   58.36193       1.9550505      0.25352977     72             72                   145 
    129000   0.41169114     0.41009716     0.40444065     0.0044112388   59.283524      1.9575829      0.252909       72             72                   145 
    129100   0.41809879     0.41657782     0.41083192     0.0043834332   60.206226      1.9601081      0.25211065     72             72                   145 
    129200   0.42344684     0.4219985      0.41617783     0.0043486886   60.976345      1.9626244      0.25110951     72             72                   145 
    129300   0.42679973     0.42541782     0.41954999     0.0043062995   61.459162      1.9651296      0.24988266     72             72                   145 
    129400   0.42739145     0.42606495     0.42018819     0.0042557321   61.544368      1.9676212      0.24841118     72             72                   145 
    129500   0.42482213     0.42353753     0.41769563     0.004196692    61.174387      1.9700969      0.24668205     72             72                   145 
    129600   0.41970684     0.41845491     0.41268312     0.0041291891   60.437784      1.972554       0.24469009     72             72                   145 
    129700   0.41376894     0.41255214     0.40686177     0.0040535902   59.582727      1.9749899      0.2424398      72             72                   145 
    129800   0.40875799     0.40759027     0.40196834     0.0039706307   58.86115       1.977402       0.23994613     72             72                   145 
    129900   0.40616576     0.4050704      0.39948323     0.0038813925   58.48787       1.9797881      0.23723447     72             72                   145 
    130000   0.40615134     0.40515132     0.39956302     0.0037872739   58.485793      1.9821461      0.2343405      72             72                   145 
    130100   0.4067478      0.40585065     0.40025271     0.0036899312   58.571684      1.9844744      0.23130932     72             72                   145 
    130200   0.40742815     0.40663588     0.40102711     0.0035911913   58.669653      1.986772       0.2281935      72             72                   145 
    130300   0.40745048     0.40675799     0.40114754     0.0034929454   58.67287       1.9890382      0.22505046     72             72                   145 
    130400   0.40694703     0.40634827     0.40074346     0.0033970352   58.600372      1.9912731      0.2219392      72             72                   145 
    130500   0.40648716     0.40597835     0.40037865     0.0033051467   58.534151      1.9934773      0.21891694     72             72                   145 
    130600   0.40651744     0.40609647     0.40049514     0.0032187243   58.538511      1.9956519      0.21603588     72             72                   145 
    130700   0.40741834     0.40708461     0.40146965     0.0031389124   58.668241      1.9977986      0.21334064     72             72                   145 
    130800   0.40883871     0.4085883      0.4029526      0.0030665289   58.872774      1.9999195      0.21086647     72             72                   145 
    130900   0.41033734     0.41016278     0.40450536     0.0030020686   59.088577      2.0020168      0.20863843     72             72                   145 
    131000   0.41152724     0.41141813     0.4057434      0.0029457284   59.259923      2.0040931      0.20667139     72             72                   145 
    131100   0.41224957     0.41219446     0.40650902     0.0028974506   59.363938      2.0061511      0.20497081     72             72                   145 
    131200   0.41225883     0.41224483     0.40655869     0.0028569722   59.365272      2.0081934      0.20353402     72             72                   145 
    131300   0.4113841      0.41139754     0.40572309     0.0028238773   59.23931       2.0102226      0.20235172     72             72                   145 
    131400   0.40984525     0.40987453     0.40422109     0.0027976447   59.017716      2.0122412      0.20140965     72             72                   145 
    131500   0.40805121     0.40808827     0.40245947     0.0027775923   58.759374      2.0142515      0.20068654     72             72                   145 
    131600   0.40658919     0.40663183     0.40102312     0.0027620131   58.548844      2.0162555      0.20012294     72             72                   145 
    131700   0.40590642     0.40595661     0.40035721     0.0027498604   58.450525      2.0182544      0.19968219     72             72                   145 
    131800   0.40589114     0.40595087     0.40035154     0.0027403462   58.448324      2.0202494      0.19933645     72             72                   145 
    131900   0.40649557     0.40656735     0.40095952     0.0027326314   58.535362      2.0222414      0.19905566     72             72                   145 
    132000   0.40745285     0.40754008     0.40191884     0.0027239956   58.67321       2.0242304      0.19874088     72             72                   145 
    132100   0.40843491     0.40853997     0.40290494     0.0027131769   58.814627      2.0262159      0.19834582     72             72                   145 
    132200   0.40816932     0.40828582     0.40265429     0.0027000683   58.776382      2.028197       0.19786609     72             72                   145 
    132300   0.4068924      0.40701567     0.40140166     0.002684592    58.592506      2.0301729      0.19729821     72             72                   145 
    132400   0.40541956     0.40555066     0.39995685     0.0026667081   58.380417      2.0321427      0.19663994     72             72                   145 
    132500   0.40513097     0.40528061     0.39969054     0.0026464238   58.338859      2.0341054      0.19589065     72             72                   145 
    132600   0.40660329     0.40678617     0.40117533     0.0026238031   58.550874      2.0360602      0.19505165     72             72                   145 
    132700   0.4091266      0.4093523      0.40370606     0.0025989738   58.91423       2.0380062      0.19412656     72             72                   145 
    132800   0.4116544      0.41192499     0.40624327     0.0025721326   59.278233      2.0399425      0.19312152     72             72                   145 
    132900   0.41340123     0.41371303     0.40800664     0.0025435487   59.529778      2.0418684      0.19204545     72             72                   145 
    133000   0.41417265     0.41452024     0.40880272     0.0025135637   59.640862      2.0437832      0.19091012     72             72                   145 
    133100   0.41400841     0.41438626     0.40867059     0.0024825851   59.61721       2.0456864      0.18973003     72             72                   145 
    133200   0.41293521     0.41333752     0.40763631     0.0024510734   59.462671      2.0475777      0.18852205     72             72                   145 
    133300   0.41073773     0.41115666     0.40548553     0.0024195254   59.146234      2.0494568      0.18730488     72             72                   145 
    133400   0.40701837     0.40744309     0.40182319     0.0023881589   58.610645      2.0513238      0.18608682     72             72                   145 
    133500   0.40167332     0.40209412     0.39654799     0.0023551664   57.840958      2.0531783      0.18479695     72             72                   145 
    133600   0.39535059     0.39576259     0.3903038      0.0023202374   56.930485      2.0550195      0.18342149     72             72                   145 
    133700   0.3887872      0.38919057     0.38382243     0.0022834806   55.985357      2.0568465      0.18196282     72             72                   145 
    133800   0.38348172     0.38388701     0.37859202     0.0022450008   55.221368      2.0586585      0.18042315     72             72                   145 
    133900   0.38073667     0.38116344     0.37590601     0.0022048897   54.826081      2.0604547      0.17880408     71             73                   145 
    134000   0.3812965      0.38176943     0.37650364     0.0021632267   54.906696      2.0622343      0.17710671     71             73                   145 
    134100   0.38497743     0.38551983     0.38020232     0.0021200943   55.43675       2.0639965      0.17533216     71             73                   145 
    134200   0.39076341     0.3913914      0.38599289     0.0020755962   56.269931      2.0657407      0.17348241     71             73                   145 
    134300   0.39712358     0.39784241     0.39235492     0.0020298744   57.185796      2.0674659      0.17156101     71             73                   145 
    134400   0.40259181     0.40339628     0.39783219     0.0019831232   57.973221      2.0691717      0.16957384     71             73                   145 
    134500   0.40647204     0.40735183     0.40173318     0.0019355969   58.531973      2.0708572      0.16752957     71             73                   145 
    134600   0.40890321     0.40984866     0.40419558     0.001887606    58.882062      2.0725221      0.16543968     71             73                   145 
    134700   0.41035967     0.41136408     0.40569009     0.0018395075   59.091792      2.0741659      0.16331828     71             73                   145 
    134800   0.41107148     0.41212935     0.40644481     0.0017916954   59.194293      2.0757884      0.16118183     71             73                   145 
    134900   0.41125273     0.41235964     0.40667192     0.0017445856   59.220393      2.0773896      0.15904871     71             73                   145 
    135000   0.41099963     0.41215169     0.40646684     0.0016983046   59.183946      2.0789694      0.15692488     71             73                   145 
    135100   0.41033484     0.41152828     0.40585202     0.0016529176   59.088217      2.0805281      0.15481378     71             73                   145 
    135200   0.40946998     0.41070192     0.40503706     0.0016089835   58.963677      2.0820658      0.15274247     71             73                   145 
    135300   0.40871719     0.40998645     0.40433146     0.0015669887   58.855275      2.0835832      0.15073598     71             73                   145 
    135400   0.40827607     0.40958245     0.40393304     0.0015273314   58.791754      2.0850809      0.14881635     71             73                   145 
    135500   0.40838352     0.40972819     0.40407677     0.0014903187   58.807227      2.0865599      0.14700211     71             73                   145 
    135600   0.40916052     0.41054525     0.40488255     0.0014561691   58.919115      2.0880213      0.14530813     71             73                   145 
    135700   0.41032373     0.41174818     0.40606889     0.0014250181   59.086617      2.0894665      0.14374548     71             73                   145 
    135800   0.41135359     0.41281373     0.40711975     0.0013969269   59.234917      2.0908967      0.14232161     71             73                   145 
    135900   0.41145743     0.41294367     0.4072479      0.001371895    59.24987       2.0923134      0.14104069     71             73                   145 
    136000   0.40991342     0.41141119     0.40573656     0.0013498708   59.027532      2.093718       0.13990399     71             73                   145 
    136100   0.40646668     0.40795973     0.4023327      0.0013307615   58.531202      2.0951119      0.13891019     71             73                   145 
    136200   0.40160825     0.40308387     0.39752409     0.0013144428   57.831588      2.0964966      0.13805586     71             73                   145 
    136300   0.39657603     0.39803032     0.39254025     0.0013007673   57.106948      2.0978735      0.13733581     71             73                   145 
    136400   0.39292252     0.39436271     0.38892322     0.0012894893   56.580843      2.0992438      0.13673915     71             73                   145 
    136500   0.39173172     0.39317308     0.38775        0.0012801212   56.409368      2.1006086      0.13624154     71             73                   145 
    136600   0.39248225     0.39393664     0.38850303     0.0012724462   56.517444      2.1019689      0.13583251     71             73                   145 
    136700   0.39370394     0.39517312     0.38972245     0.0012662887   56.693368      2.1033255      0.13550346     71             73                   145 
    136800   0.3943298      0.39580821     0.39034879     0.0012614917   56.78349       2.1046792      0.13524655     71             73                   145 
    136900   0.39443611     0.39591889     0.39045794     0.0012579195   56.7988        2.1060307      0.13505493     71             73                   145 
    137000   0.39479476     0.39628278     0.39081681     0.0012552236   56.850446      2.1073805      0.13491013     71             73                   145 
    137100   0.39632613     0.39782778     0.3923405      0.0012523447   57.070963      2.1087288      0.13475533     71             73                   145 
    137200   0.3990831      0.4006072      0.39508158     0.0012492219   57.467967      2.1100755      0.13458721     71             73                   145 
    137300   0.40300507     0.40455994     0.3989798      0.0012459213   58.03273       2.1114205      0.1344093      71             73                   145 
    137400   0.40731172     0.40890017     0.40326017     0.0012425052   58.652888      2.1127637      0.1342249      71             73                   145 
    137500   0.41111508     0.41273366     0.40704078     0.0012390272   59.200572      2.114105       0.13403691     71             73                   145 
    137600   0.4137267      0.41536708     0.40963788     0.0012355322   59.576645      2.1154444      0.13384774     71             73                   145 
    137700   0.41475437     0.41640546     0.41066193     0.0012320595   59.724629      2.116782       0.13365951     71             73                   145 
    137800   0.41409378     0.41574371     0.41000931     0.0012286489   59.629504      2.1181176      0.13347437     71             73                   145 
    137900   0.41190047     0.41353841     0.40783443     0.0012253442   59.313668      2.1194515      0.13329475     71             73                   145 
    138000   0.40864848     0.41026688     0.40460802     0.0012221942   58.845381      2.1207836      0.13312331     71             73                   145 
    138100   0.40510761     0.40670423     0.40109452     0.0012192495   58.335497      2.122114       0.13296284     71             73                   145 
    138200   0.40175045     0.40332632     0.3977632      0.0012165582   57.852064      2.1234429      0.13281601     71             73                   145 
    138300   0.39846318     0.40001849     0.394501       0.0012141621   57.378698      2.1247704      0.13268516     71             73                   145 
    138400   0.39512399     0.39665805     0.3911869      0.0012120942   56.897854      2.1260966      0.13257211     71             73                   145 
    138500   0.38878837     0.39027987     0.3848967      0.0012103771   55.985526      2.1274219      0.13247818     71             73                   145 
    138600   0.38094695     0.38238498     0.37711071     0.0012090239   54.856361      2.1287463      0.1324041      71             73                   145 
    138700   0.37298623     0.3743696      0.36920588     0.0012080388   53.710018      2.13007        0.13235015     71             73                   145 
    138800   0.36624474     0.36758158     0.36251149     0.001207419    52.739242      2.1313933      0.13231619     71             73                   145 
    138900   0.36365186     0.36497084     0.35993675     0.0012071565   52.365867      2.1327164      0.13230181     71             73                   145 
    139000   0.36615066     0.36748699     0.36241821     0.0012072769   52.725695      2.1340394      0.13230841     71             73                   145 
    139100   0.37298859     0.37437218     0.36920842     0.0012078345   53.710357      2.1353626      0.13233896     71             73                   145 
    139200   0.38183933     0.38328376     0.37799709     0.001208865    54.984863      2.1366863      0.1323954      71             73                   145 
    139300   0.38904786     0.39054114     0.38515437     0.0012104081   56.022892      2.1380106      0.13247988     71             73                   145 
    139400   0.39475565     0.39628672     0.3908207      0.0012125041   56.844814      2.139336       0.13259453     71             73                   145 
    139500   0.39794092     0.39949153     0.39398131     0.0012151926   57.303492      2.1406626      0.13274145     71             73                   145 
    139600   0.39827904     0.39982866     0.39431378     0.0012185117   57.352182      2.1419909      0.13292261     71             73                   145 
    139700   0.39607764     0.39760782     0.39212358     0.0012224962   57.035181      2.1433212      0.13313976     71             73                   145 
    139800   0.39234244     0.39384175     0.38840945     0.0012271766   56.497311      2.1446539      0.13339438     71             73                   145 
    139900   0.38874915     0.39021786     0.38483554     0.0012325768   55.979877      2.1459892      0.13368756     71             73                   145 
    140000   0.38678513     0.38823389     0.38287894     0.0012387123   55.697059      2.1473277      0.13401988     71             73                   145 
    140100   0.38740986     0.38885601     0.38349248     0.0012455882   55.78702       2.1486698      0.13439133     71             73                   145 
    140200   0.3902043      0.39166227     0.38626003     0.0012531983   56.189419      2.1500157      0.13480124     71             73                   145 
    140300   0.39411254     0.3955894      0.390133       0.0012615225   56.752206      2.1513659      0.1352482      71             73                   145 
    140400   0.3982212      0.39971767     0.39420432     0.0012705264   57.343853      2.1527208      0.13573        71             73                   145 
    140500   0.40244341     0.40395963     0.39838778     0.0012801595   57.951851      2.1540806      0.13624358     71             73                   145 
    140600   0.40712482     0.40866345     0.40302671     0.0012903554   58.625975      2.1554457      0.13678506     71             73                   145 
    140700   0.41227759     0.41384142     0.40813326     0.0013010319   59.367973      2.1568164      0.13734978     71             73                   145 
    140800   0.41728259     0.41887021     0.41309269     0.0013120926   60.088693      2.1581928      0.13793238     71             73                   145 
    140900   0.42130521     0.42290946     0.41707623     0.0013234287   60.66795       2.1595751      0.13852695     71             73                   145 
    141000   0.42399965     0.42561109     0.41974059     0.0013349226   61.05595       2.1609633      0.1391272      71             73                   145 
    141100   0.42537902     0.42698842     0.42109892     0.0013464535   61.254579      2.1623576      0.13972679     71             73                   145 
    141200   0.42563294     0.42723251     0.42133964     0.0013579019   61.291144      2.1637579      0.14031956     71             73                   145 
    141300   0.42514867     0.42673343     0.42084745     0.0013691547   61.221408      2.165164       0.14089976     71             73                   145 
    141400   0.42437079     0.42593901     0.42006399     0.0013801087   61.109394      2.1665758      0.14146228     71             73                   145 
    141500   0.42368077     0.42523345     0.41936816     0.0013906741   61.010031      2.1679931      0.14200273     71             73                   145 
    141600   0.42307153     0.4246097      0.41875302     0.0014007765   60.9223        2.1694158      0.14251757     71             73                   145 
    141700   0.42256095     0.42408584     0.41823638     0.0014103577   60.848776      2.1708434      0.14300415     71             73                   145 
    141800   0.42179341     0.42330378     0.41746511     0.0014193757   60.738251      2.1722757      0.14346062     71             73                   145 
    141900   0.42049103     0.42198375     0.41616329     0.0014278036   60.550708      2.1737125      0.1438859      71             73                   145 
    142000   0.41866102     0.42013301     0.41433807     0.0014356271   60.287186      2.1751534      0.14427957     71             73                   145 
    142100   0.41638782     0.4178366      0.41207334     0.0014428421   59.959846      2.176598       0.14464166     71             73                   145 
    142200   0.41369802     0.41512129     0.40939547     0.001449452    59.572514      2.1780461      0.1449726      71             73                   145 
    142300   0.41043022     0.41182431     0.40614398     0.0014556925   59.101952      2.1794974      0.14528434     72             72                   145 
    142400   0.40651205     0.4078715      0.40224568     0.0014628406   58.537736      2.1809519      0.14564061     72             72                   145 
    142500   0.40214396     0.4034643      0.39789927     0.0014712761   57.90873       2.1824104      0.14605993     72             72                   145 
    142600   0.39789246     0.39917299     0.39366716     0.0014812211   57.296515      2.1838734      0.14655274     72             72                   145 
    142700   0.3945449      0.39579018     0.390331       0.0014928993   56.814466      2.1853417      0.14712933     72             72                   145 
    142800   0.39286039     0.39408006     0.38864448     0.0015065297   56.571896      2.1868163      0.14779946     72             72                   145 
    142900   0.39327666     0.39448323     0.38904209     0.0015223174   56.631838      2.1882981      0.14857188     72             72                   145 
    143000   0.3957087      0.3969139      0.39143923     0.0015404418   56.982052      2.1897881      0.14945369     72             72                   145 
    143100   0.39969638     0.40090858     0.39537881     0.0015610419   57.556278      2.1912875      0.15044968     72             72                   145 
    143200   0.4044149      0.40563662     0.40004163     0.0015841996   58.235746      2.1927975      0.15156152     72             72                   145 
    143300   0.40910928     0.41033775     0.40467792     0.0016099207   58.911737      2.1943191      0.15278695     72             72                   145 
    143400   0.41318713     0.41441553     0.40869945     0.0016381137   59.498947      2.1958536      0.15411894     72             72                   145 
    143500   0.41596028     0.41717719     0.41142302     0.0016685723   59.898281      2.1974018      0.15554517     72             72                   145 
    143600   0.41601689     0.41720134     0.41144684     0.0017009681   59.906432      2.1989647      0.15704788     72             72                   145 
    143700   0.41301739     0.41414651     0.40843414     0.0017348524   59.474504      2.2005429      0.15860441     72             72                   145 
    143800   0.40773799     0.40879486     0.40315631     0.0017696928   58.71427       2.2021369      0.16018909     72             72                   145 
    143900   0.40162252     0.40260076     0.39704764     0.0018050614   57.833642      2.2037468      0.16178192     72             72                   145 
    144000   0.39583904     0.39674107     0.39126878     0.0018403361   57.000822      2.2053725      0.16335505     72             72                   145 
    144100   0.39137494     0.39221076     0.38680096     0.0018748388   56.357991      2.2070137      0.16487924     72             72                   145 
    144200   0.38933718     0.39012521     0.38474417     0.0019079261   56.064554      2.2086698      0.16632777     72             72                   145 
    144300   0.38975671     0.39051614     0.38512971     0.0019390278   56.124966      2.2103399      0.16767797     72             72                   145 
    144400   0.39160438     0.39234767     0.38693598     0.0019676776   56.39103       2.212023       0.16891218     72             72                   145 
    144500   0.39333263     0.3940618      0.38862646     0.0019935327   56.639899      2.2137177      0.1700183      72             72                   145 
    144600   0.39371564     0.39442432     0.38898398     0.0020163798   56.695053      2.2154229      0.17098979     72             72                   145 
    144700   0.39267878     0.39336018     0.38793452     0.0020361309   56.545744      2.2171371      0.1718252      72             72                   145 
    144800   0.39127447     0.39192914     0.38652322     0.0020528083   56.343524      2.218859       0.17252745     72             72                   145 
    144900   0.3910063      0.39164518     0.38624318     0.0020665244   56.304907      2.2205872      0.17310287     72             72                   145 
    145000   0.39283398     0.39347456     0.38804733     0.0020774593   56.568094      2.2223206      0.17356025     72             72                   145 
    145100   0.39666797     0.39732687     0.3918465      0.002085838    57.120188      2.2240581      0.17390989     72             72                   145 
    145200   0.40128237     0.40196737     0.39642299     0.0020919107   57.784661      2.2257985      0.17416287     72             72                   145 
    145300   0.40536382     0.40607329     0.40047227     0.0020959362   58.372391      2.227541       0.17433036     72             72                   145 
    145400   0.40792606     0.40865117     0.40301461     0.0020981698   58.741353      2.2292849      0.17442323     72             72                   145 
    145500   0.40836076     0.40908822     0.40344562     0.0020988544   58.803949      2.2310293      0.17445168     72             72                   145 
    145600   0.40639775     0.40711148     0.40149615     0.0020988544   58.521276      2.2327738      0.17445168     72             72                   145 
    145700   0.40182954     0.40251133     0.39695945     0.0020988544   57.863454      2.2345183      0.17445168     73             71                   145 
    145800   0.39538421     0.39602092     0.39055856     0.0020988544   56.935326      2.2362628      0.17445168     73             71                   145 
    145900   0.38842786     0.38901593     0.3836502      0.0020988544   55.933612      2.2380073      0.17445168     73             71                   145 
    146000   0.38268665     0.38323457     0.37794858     0.0020988544   55.106878      2.2397519      0.17445168     73             71                   145 
    146100   0.37983915     0.38036716     0.37512071     0.0020988544   54.696837      2.2414964      0.17445168     73             71                   145 
    146200   0.38034649     0.38087805     0.37562456     0.0020988544   54.769895      2.2432409      0.17445168     73             71                   145 
    146300   0.38329777     0.38384997     0.37855549     0.0020988544   55.194879      2.2449854      0.17445168     73             71                   145 
    146400   0.38753597     0.3881178      0.38276445     0.0020988544   55.805179      2.2467299      0.17445168     73             71                   145 
    146500   0.39266866     0.39328639     0.38786175     0.0020988544   56.544288      2.2484744      0.17445168     73             71                   145 
    146600   0.39883151     0.39949233     0.39398209     0.0020988544   57.431737      2.250219       0.17445168     73             71                   145 
    146700   0.40590174     0.40661201     0.40100356     0.0020988544   58.449851      2.2519635      0.17445168     73             71                   145 
    146800   0.41318317     0.41394436     0.40823478     0.0020988544   59.498377      2.253708       0.17445168     73             71                   145 
    146900   0.41960759     0.4204137      0.41461489     0.0020988544   60.423493      2.2554525      0.17445168     73             71                   145 
    147000   0.42448663     0.42532686     0.41946028     0.0020988544   61.126074      2.257197       0.17445168     73             71                   145 
    147100   0.42770276     0.42856578     0.42265453     0.0020985638   61.589198      2.2589415      0.1744396      73             71                   145 
    147200   0.42964197     0.43052008     0.42458187     0.0020970489   61.868444      2.2606856      0.17437663     73             71                   145 
    147300   0.4308173      0.4317066      0.42575203     0.0020941207   62.037691      2.2624289      0.17425484     73             71                   145 
    147400   0.43150086     0.43239948     0.42643535     0.0020896427   62.136124      2.2641705      0.17406843     73             71                   145 
    147500   0.43174544     0.43265202     0.42668441     0.0020834776   62.171343      2.26591        0.17381146     73             71                   145 
    147600   0.43182219     0.43273741     0.42676861     0.0020754901   62.182395      2.2676465      0.17347797     73             71                   145 
    147700   0.43172063     0.43264521     0.42667769     0.0020655529   62.167771      2.2693793      0.17306218     73             71                   145 
    147800   0.43125383     0.43218731     0.42622611     0.0020535514   62.100551      2.2711075      0.17255867     73             71                   145 
    147900   0.43052956     0.43147234     0.425521       0.0020393914   61.996257      2.2728301      0.17196271     73             71                   145 
    148000   0.42943413     0.43038587     0.42444951     0.0020230043   61.838515      2.2745464      0.17127044     73             71                   145 
    148100   0.42792839     0.42888851     0.42297281     0.0020043533   61.621688      2.2762552      0.1704791      73             71                   145 
    148200   0.42623566     0.42720515     0.42131266     0.001983439    61.377935      2.2779556      0.16958734     73             71                   145 
    148300   0.4247201      0.42570245     0.41983069     0.0019603049   61.159694      2.2796466      0.16859544     73             71                   145 
    148400   0.42373293     0.42473399     0.41887559     0.0019350395   61.017541      2.2813272      0.16750544     73             71                   145 
    148500   0.42309698     0.42412124     0.41827129     0.0019077772   60.925965      2.2829964      0.16632129     73             71                   145 
    148600   0.42206239     0.4231089      0.41727292     0.0018786956   60.776984      2.2846533      0.16504874     73             71                   145 
    148700   0.41949562     0.4205553      0.41475454     0.001848009    60.407369      2.2862971      0.16369524     73             71                   145 
    148800   0.41445242     0.41550934     0.40977817     0.0018159603   59.681149      2.287927       0.16226961     73             71                   145 
    148900   0.40681719     0.40785432     0.40222874     0.0017828085   58.581675      2.2895423      0.1607816      73             71                   145 
    149000   0.39737716     0.39838275     0.39288781     0.0017488156   57.222311      2.2911425      0.15924141     73             71                   145 
    149100   0.38767312     0.38864591     0.38328528     0.0017142325   55.824929      2.292727       0.15765903     73             71                   145 
    149200   0.37947693     0.38042784     0.37518056     0.0016792855   54.644678      2.2942955      0.15604371     73             71                   145 
    149300   0.37458258     0.37553488     0.37035509     0.0016441659   53.939892      2.2958478      0.15440339     73             71                   145 
    149400   0.37411655     0.37510123     0.36992742     0.0016090215   53.872784      2.2973835      0.15274427     73             71                   145 
    149500   0.37670337     0.37774169     0.37253146     0.0015739531   54.245285      2.2989026      0.15107058     72             72                   145 
    149600   0.38239005     0.38350356     0.37821386     0.0015390155   55.064167      2.3004049      0.14938448     72             72                   145 
    149700   0.38940115     0.39059898     0.3852114      0.001504222    56.073766      2.3018903      0.14768622     72             72                   145 
    149800   0.39590992     0.39718841     0.39170995     0.0014695547   57.011029      2.3033586      0.14597446     72             72                   145 
    149900   0.40093792     0.40228663     0.39673785     0.0014349767   57.73506       2.3048097      0.14424688     72             72                   145 
    150000   0.40430074     0.40570798     0.40011201     0.0014004474   58.219307      2.3062435      0.14250083     72             72                   145 
    150100   0.40616499     0.40762026     0.40199791     0.0013659394   58.487758      2.3076597      0.14073422     72             72                   145 
    150200   0.40650818     0.40800082     0.40237322     0.0013314544   58.537178      2.3090581      0.13894635     72             72                   145 
    150300   0.40550161     0.40702275     0.40140865     0.0012964018   58.392232      2.3104384      0.13710517     72             72                   145 
    150400   0.40170857     0.40324038     0.39767844     0.0012597215   57.846034      2.3117998      0.13515163     72             72                   145 
    150500   0.39582154     0.397351       0.3918703      0.0012214317   56.998301      2.3131411      0.13308178     72             72                   145 
    150600   0.38923876     0.39076255     0.38537272     0.0011816332   56.050381      2.3144611      0.13089569     72             72                   145 
    150700   0.38312971     0.3846525      0.37934695     0.0011404852   55.170678      2.3157586      0.12859641     72             72                   145 
    150800   0.3787476      0.38028263     0.37503736     0.0010981946   54.539655      2.3170326      0.12618963     72             72                   145 
    150900   0.37668077     0.37824514     0.37302797     0.0010549998   54.242031      2.3182821      0.12368305     72             72                   145 
    151000   0.3766433      0.37825187     0.3730346      0.0010111541   54.236635      2.319506       0.12108565     72             72                   145 
    151100   0.37803583     0.379699       0.37446178     0.00096691039  54.43716       2.3207035      0.11840693     72             72                   145 
    151200   0.38055657     0.38228239     0.37700953     0.00092251014  54.800145      2.3218739      0.11565637     72             72                   145 
    151300   0.38357941     0.38537133     0.38005586     0.00087817759  55.235435      2.3230164      0.11284314     72             72                   145 
    151400   0.38688708     0.3887468      0.38338477     0.00083412003  55.711739      2.3241306      0.10997609     72             72                   145 
    151500   0.38991939     0.39184451     0.38643975     0.00079053263  56.148392      2.3252158      0.10706411     72             72                   145 
    151600   0.39195009     0.39393294     0.38849938     0.00074760589  56.440814      2.3262717      0.10411669     72             72                   145 
    151700   0.39270231     0.39473308     0.38928849     0.00070553318  56.549133      2.3272981      0.1011446      72             72                   145 
    151800   0.39239373     0.39446393     0.38902305     0.00066451607  56.504697      2.3282946      0.098160496    72             72                   145 
    151900   0.39140536     0.39350896     0.38808125     0.00062476576  56.362372      2.3292613      0.095179323    72             72                   145 
    152000   0.39059728     0.39273403     0.38731701     0.00058649995  56.246009      2.3301982      0.092218487    72             72                   145 
    152100   0.39083918     0.39301469     0.3875938      0.00054993524  56.280842      2.3311058      0.089297598    72             72                   145 
    152200   0.39281113     0.39503557     0.38958681     0.00051527649  56.564802      2.3319844      0.086437892    72             72                   145 
    152300   0.39679631     0.39908165     0.39357707     0.00048270575  57.138668      2.3328348      0.083661421    72             72                   145 
    152400   0.40204081     0.40439358     0.39881574     0.00045237199  57.893876      2.333658       0.080990085    72             72                   145 
    152500   0.40716312     0.4095801      0.40393072     0.00042438338  58.631489      2.334455       0.078444624    72             72                   145 
    152600   0.41093541     0.41340471     0.40770257     0.00039880286  59.1747        2.3352273      0.076043681    72             72                   145 
    152700   0.41257098     0.41507519     0.40935002     0.00037564745  59.410221      2.3359764      0.073803036    72             72                   145 
    152800   0.41178163     0.41430136     0.40858686     0.00035489108  59.296554      2.336704       0.071735073    72             72                   145 
    152900   0.40868819     0.41120498     0.40553319     0.00033646994  58.8511        2.3374117      0.069848508    72             72                   145 
    153000   0.40393314     0.40643313     0.40082715     0.00032023898  58.166372      2.3381016      0.068142976    74             70                   145 
    153100   0.39879824     0.40127675     0.39574189     0.00030601262  57.426946      2.3387752      0.066612184    74             70                   145 
    153200   0.39509838     0.39756351     0.39207988     0.00029368958  56.894167      2.3394344      0.065257176    74             70                   145 
    153300   0.3940518      0.3965203      0.39105105     0.00028315144  56.74346       2.3400809      0.064075704    74             70                   145 
    153400   0.39558667     0.39807491     0.39258422     0.00027426865  56.964481      2.3407165      0.063062631    74             70                   145 
    153500   0.39854426     0.40106064     0.39552877     0.00026690716  57.390373      2.3413427      0.062210561    74             70                   145 
    153600   0.40153812     0.4040815      0.39850796     0.00026093343  57.821489      2.3419612      0.061510444    74             70                   145 
    153700   0.40366162     0.40622462     0.40062153     0.00025621802  58.127273      2.3425734      0.060952122    74             70                   145 
    153800   0.40473609     0.40731024     0.40169217     0.00025263803  58.281997      2.3431807      0.0605248      73             71                   145 
    153900   0.40501435     0.40759304     0.40197107     0.0002500779   58.322066      2.3437843      0.060217352    73             71                   145 
    154000   0.40477121     0.40734988     0.40173126     0.0002484284   58.287055      2.3443854      0.060018429    73             71                   145 
    154100   0.40400088     0.40657501     0.40096708     0.00024758693  58.176127      2.344985       0.059916696    73             71                   145 
    154200   0.40270942     0.40527468     0.39968468     0.00024742723  57.990156      2.345584       0.059897369    73             71                   145 
    154300   0.40087734     0.40342979     0.39786524     0.00024742723  57.726337      2.346183       0.059897369    73             71                   145 
    154400   0.39936613     0.40190801     0.39636445     0.00024742723  57.508723      2.3467819      0.059897369    73             71                   145 
    154500   0.39899151     0.40153077     0.39599241     0.00024742723  57.454777      2.3473809      0.059897369    73             71                   145 
    154600   0.39978187     0.40232666     0.39677733     0.00024742723  57.568589      2.3479799      0.059897369    73             71                   145 
    154700   0.40193445     0.40449429     0.39891506     0.00024742723  57.87856       2.3485789      0.059897369    73             71                   145 
    154800   0.405659       0.40824488     0.40261392     0.00024742723  58.414895      2.3491778      0.059897369    73             71                   145 
    154900   0.40885337     0.4114616      0.40578627     0.00024742723  58.874885      2.3497768      0.059897369    73             71                   145 
    155000   0.41059656     0.41321697     0.40751743     0.00024742723  59.125904      2.3503758      0.059897369    73             71                   145 
    155100   0.41128984     0.41391511     0.40820594     0.00024742723  59.225738      2.3509747      0.059897369    73             71                   145 
    155200   0.41103472     0.4136582      0.40795257     0.00024742723  59.188999      2.3515737      0.059897369    73             71                   145 
    155300   0.41029784     0.41291617     0.40722077     0.00024742723  59.082889      2.3521727      0.059897369    73             71                   145 
    155400   0.40941966     0.41203184     0.40634865     0.00024742723  58.956431      2.3527717      0.059897369    73             71                   145 
    155500   0.40906197     0.41167166     0.40599343     0.00024742723  58.904924      2.3533706      0.059897369    73             71                   145 
    155600   0.40919009     0.41180067     0.40612066     0.00024742723  58.923373      2.3539696      0.059897369    73             71                   145 
    155700   0.40954957     0.41216266     0.40647766     0.00024742723  58.975138      2.3545686      0.059897369    73             71                   145 
    155800   0.40982331     0.41243832     0.40674952     0.00024742723  59.014557      2.3551676      0.059897369    73             71                   145 
    155900   0.40994408     0.41255994     0.40686945     0.00024742723  59.031948      2.3557665      0.059897369    73             71                   145 
    156000   0.41001602     0.41263237     0.40694089     0.00024742723  59.042306      2.3563655      0.059897369    73             71                   145 
    156100   0.41011172     0.41272874     0.40703593     0.00024742723  59.056087      2.3569645      0.059897369    73             71                   145 
    156200   0.41034975     0.41296844     0.40727233     0.00024742723  59.090364      2.3575635      0.059897369    73             71                   145 
    156300   0.41085595     0.41347818     0.40777503     0.00024742723  59.163256      2.3581624      0.059897369    73             71                   145 
    156400   0.41176608     0.41439467     0.40867888     0.00024742723  59.294315      2.3587614      0.059897369    73             71                   145 
    156500   0.41307503     0.41571278     0.40997881     0.00024742723  59.482804      2.3593604      0.059897369    73             71                   145 
    156600   0.41433403     0.41698058     0.41122913     0.00024742723  59.6641        2.3599594      0.059897369    73             71                   145 
    156700   0.41489348     0.41754395     0.41178472     0.00024742723  59.744661      2.3605583      0.059897369    73             71                   145 
    156800   0.41431941     0.41696586     0.41121461     0.00024742723  59.661995      2.3611573      0.059897369    73             71                   145 
    156900   0.41266939     0.4153043      0.40957597     0.00024742723  59.424392      2.3617563      0.059897369    73             71                   145 
    157000   0.4104128      0.41303193     0.40733494     0.00024742723  59.099444      2.3623552      0.059897369    73             71                   145 
    157100   0.40808552     0.41068838     0.40502371     0.00024742723  58.764315      2.3629542      0.059897369    73             71                   145 
    157200   0.40579846     0.40838532     0.40275242     0.00024742723  58.434978      2.3635532      0.059897369    73             71                   145 
    157300   0.40349711     0.40606788     0.40046695     0.00024742723  58.103584      2.3641522      0.059897369    73             71                   145 
    157400   0.40139931     0.40395541     0.39838361     0.00024742723  57.8015        2.3647511      0.059897369    73             71                   145 
    157500   0.40019521     0.40274289     0.39718781     0.00024742723  57.62811       2.3653501      0.059897369    73             71                   145 
    157600   0.40043561     0.40298497     0.39742656     0.00024742723  57.662728      2.3659491      0.059897369    73             71                   145 
    157700   0.40210714     0.40466819     0.39908656     0.00024742723  57.903429      2.3665481      0.059897369    73             71                   145 
    157800   0.40464057     0.40721933     0.40160251     0.00024742723  58.268241      2.367147       0.059897369    73             71                   145 
    157900   0.40730168     0.40989906     0.40424528     0.00024742723  58.651442      2.367746       0.059897369    73             71                   145 
    158000   0.40936398     0.41197577     0.40629335     0.00024742723  58.948412      2.368345       0.059897369    73             71                   145 
    158100   0.41060091     0.41322135     0.40752175     0.00024742723  59.12653       2.368944       0.059897369    73             71                   145 
    158200   0.41115004     0.41377433     0.4080671      0.00024742723  59.205606      2.3695429      0.059897369    73             71                   145 
    158300   0.41119324     0.41381783     0.40811        0.00024742723  59.211827      2.3701419      0.059897369    73             71                   145 
    158400   0.41074723     0.4133687      0.40766706     0.00024742723  59.147601      2.3707409      0.059897369    73             71                   145 
    158500   0.40969764     0.41231177     0.40662471     0.00024742723  58.99646       2.3713399      0.059897369    73             71                   145 
    158600   0.40822459     0.41082842     0.40516182     0.00024742723  58.784341      2.3719388      0.059897369    73             71                   145 
    158700   0.40740975     0.41000788     0.4043526      0.00024742723  58.667004      2.3725378      0.059897369    73             71                   145 
    158800   0.40836825     0.41097308     0.40530449     0.00024742723  58.805028      2.3731368      0.059897369    73             71                   145 
    158900   0.40891781     0.41152649     0.40585026     0.00024742723  58.884165      2.3737357      0.059897369    73             71                   145 
    159000   0.41124827     0.41387325     0.40816465     0.00024742723  59.219751      2.3743347      0.059897369    73             71                   145 
    159100   0.41478121     0.41743089     0.41167323     0.00024742723  59.728495      2.3749337      0.059897369    73             71                   145 
    159200   0.41904752     0.42172703     0.41591011     0.00024742723  60.342843      2.3755327      0.059897369    73             71                   145 
    159300   0.42338173     0.42609155     0.42021442     0.00024742723  60.966969      2.3761316      0.059897369    73             71                   145 
    159400   0.42686255     0.42959672     0.42367125     0.00024742723  61.468208      2.3767306      0.059897369    73             71                   145 
    159500   0.4282692      0.43101321     0.4250682      0.00024742723  61.670765      2.3773296      0.059897369    73             71                   145 
    159600   0.42712684     0.42986285     0.42393371     0.00024742723  61.506265      2.3779286      0.059897369    73             71                   145 
    159700   0.42359411     0.42630541     0.42042534     0.00024742723  60.997551      2.3785275      0.059897369    73             71                   145 
    159800   0.41830649     0.42098082     0.41517419     0.00024742723  60.236134      2.3791265      0.059897369    73             71                   145 
    159900   0.41186556     0.41449485     0.40877768     0.00024742723  59.308641      2.3797255      0.059897369    73             71                   145 
    160000   0.40677689     0.4093706      0.40372411     0.00024742723  58.575873      2.3803245      0.059897369    73             71                   145 
    160100   0.40404477     0.40661937     0.40101083     0.00024742723  58.182447      2.3809234      0.059897369    73             71                   145 
    160200   0.40346124     0.40603176     0.40043132     0.00024742723  58.098418      2.3815224      0.059897369    73             71                   145 
    160300   0.40396386     0.4065379      0.40093048     0.00024742723  58.170796      2.3821214      0.059897369    73             71                   145 
    160400   0.40475914     0.40733874     0.40172027     0.00024742723  58.285317      2.3827204      0.059897369    72             72                   145 
    160500   0.40523345     0.40781636     0.40219131     0.00024742723  58.353616      2.3833193      0.059897369    72             72                   145 
    160600   0.4050538      0.40763546     0.4020129      0.00024742723  58.327747      2.3839183      0.059897369    72             72                   145 
    160700   0.40401427     0.40658866     0.40098054     0.00024742723  58.178055      2.3845173      0.059897369    72             72                   145 
    160800   0.40196352     0.40452357     0.39894393     0.00024742723  57.882747      2.3851162      0.059897369    72             72                   145 
    160900   0.39886514     0.40140352     0.39586692     0.00024742723  57.436581      2.3857152      0.059897369    72             72                   145 
    161000   0.39493546     0.39744635     0.39196434     0.00024742723  56.870706      2.3863142      0.059897369    72             72                   145 
    161100   0.39072163     0.39320307     0.38777958     0.00024742723  56.263915      2.3869132      0.059897369    72             72                   145 
    161200   0.38701457     0.38947008     0.38409807     0.00024742723  55.730098      2.3875121      0.059897369    72             72                   145 
    161300   0.38476971     0.38720952     0.3818687      0.00024742723  55.406839      2.3881111      0.059897369    72             72                   145 
    161400   0.38463922     0.38707812     0.38173911     0.00024742723  55.388048      2.3887101      0.059897369    72             72                   145 
    161500   0.38642573     0.38887712     0.38351329     0.00024742723  55.645305      2.3893091      0.059897369    72             72                   145 
    161600   0.38910346     0.39157358     0.38617257     0.00024742723  56.030899      2.389908       0.059897369    72             72                   145 
    161700   0.39283978     0.39533602     0.38988311     0.00024742723  56.568928      2.390507       0.059897369    72             72                   145 
    161800   0.39724284     0.39976988     0.39425581     0.00024742723  57.202969      2.391106       0.059897369    72             72                   145 
    161900   0.40174621     0.40430474     0.39872812     0.00024742723  57.851454      2.391705       0.059897369    72             72                   145 
    162000   0.40556561     0.40815085     0.40252118     0.00024742723  58.401448      2.3923039      0.059897369    72             72                   145 
    162100   0.40831492     0.41091938     0.40525153     0.00024742723  58.797348      2.3929029      0.059897369    72             72                   145 
    162200   0.41018013     0.41279764     0.40710388     0.00024742276  59.065939      2.3935019      0.059896828    72             72                   145 
    162300   0.41158118     0.41420856     0.40849534     0.00024734952  59.26769       2.3941008      0.059887963    72             72                   145 
    162400   0.4131179      0.4157562      0.41002163     0.00024718573  59.488978      2.3946996      0.059868131    72             72                   145 
    162500   0.41470334     0.41735298     0.41159639     0.00024693074  59.717281      2.3952981      0.059837244    72             72                   145 
    162600   0.41545129     0.41810651     0.41233953     0.00024658426  59.824986      2.3958963      0.059795248    72             72                   145 
    162700   0.41439895     0.41704726     0.41129488     0.00024614634  59.673449      2.396494       0.059742129    72             72                   145 
    162800   0.4110774      0.41370302     0.40799677     0.00024561746  59.195146      2.3970911      0.059677912    72             72                   145 
    162900   0.40600488     0.40859565     0.40295985     0.00024499848  58.464703      2.3976875      0.059602668    72             72                   145 
    163000   0.40069586     0.40325022     0.39768815     0.00024429068  57.700204      2.3982831      0.059516509    72             72                   145 
    163100   0.396929       0.39945782     0.39394806     0.00024349576  57.157776      2.3988778      0.059419597    72             72                   145 
    163200   0.39594971     0.39847258     0.39297641     0.00024261586  57.016758      2.3994715      0.05931214     72             72                   145 
    163300   0.39807666     0.40061538     0.39508965     0.00024165353  57.323039      2.400064       0.059194393    72             72                   145 
    163400   0.40266863     0.40524052     0.39965099     0.00024061177  57.984282      2.4006553      0.059066663    72             72                   145 
    163500   0.40800706     0.41061741     0.40495372     0.00023949401  58.753016      2.4012453      0.058929306    72             72                   145 
    163600   0.41190581     0.41454463     0.40882677     0.00023830407  59.314436      2.4018339      0.058782727    72             72                   145 
    163700   0.41231943     0.41496242     0.4092388      0.00023704626  59.373998      2.402421       0.058627389    72             72                   145 
    163800   0.41002798     0.41265629     0.40696447     0.00023572536  59.044029      2.4030064      0.058463815    72             72                   145 
    163900   0.40582776     0.40842809     0.4027946      0.00023434658  58.439197      2.4035902      0.058292584    72             72                   145 
    164000   0.40098284     0.40355074     0.39798452     0.00023291548  57.741528      2.4041722      0.058114322    72             72                   145 
    164100   0.39673282     0.3992725      0.39376529     0.0002314379   57.129526      2.4047525      0.057929695    72             72                   145 
    164200   0.39371808     0.39623822     0.39077286     0.00022991988  56.695403      2.4053308      0.0577394      72             72                   145 
    164300   0.39123873     0.39374311     0.38831217     0.00022836755  56.338378      2.4059072      0.057544153    72             72                   145 
    164400   0.39000051     0.39249783     0.38708407     0.00022678706  56.160074      2.4064817      0.057344681    72             72                   145 
    164500   0.38968726     0.39218401     0.38677457     0.00022518451  56.114965      2.4070541      0.057141713    72             72                   145 
    164600   0.39007755     0.39257868     0.3871638      0.00022356591  56.171168      2.4076245      0.056935979    72             72                   145 
    164700   0.39102306     0.39353244     0.38810441     0.00022193716  56.30732       2.4081928      0.056728202    72             72                   145 
    164800   0.39238795     0.39490821     0.3894612      0.00022062054  56.503864      2.4087592      0.056559683    72             72                   145 
    164900   0.39458254     0.39711834     0.39164085     0.00022042966  56.819885      2.4093245      0.056535211    72             72                   145 
    165000   0.39791706     0.40047501     0.39495122     0.00022159295  57.300057      2.4098905      0.056684193    72             72                   145 
    165100   0.40242557     0.40501225     0.39942588     0.00022434406  57.949282      2.4104589      0.057034979    72             72                   145 
    165200   0.40762191     0.41024025     0.40458177     0.00022895141  58.697554      2.4110319      0.057617666    72             72                   145 
    165300   0.41276375     0.41541119     0.40968138     0.00023572272  59.43798       2.4116121      0.058463488    72             72                   145 
    165400   0.41736158     0.42003176     0.41423822     0.00024500805  60.100068      2.4122022      0.059603832    72             72                   145 
    165500   0.4211117      0.42379574     0.41795028     0.00025719913  60.640085      2.4128053      0.061068711    72             72                   145 
    165600   0.42385708     0.42654457     0.4206612      0.00027272367  61.035419      2.4134247      0.062884762    72             72                   145 
    165700   0.42504922     0.42772548     0.42182581     0.00029203216  61.207088      2.4140642      0.065072777    72             72                   145 
    165800   0.42513184     0.42778481     0.42188433     0.00031557453  61.218986      2.4147275      0.067644886    72             72                   145 
    165900   0.42397049     0.42658675     0.42070279     0.00034376479  61.051751      2.4154184      0.070601625    72             72                   145 
    166000   0.42143394     0.42399883     0.41815057     0.00037693321  60.686487      2.4161407      0.073929233    72             72                   145 
    166100   0.41704009     0.41953538     0.41374868     0.00041526859  60.053773      2.4168981      0.077597645    72             72                   145 
    166200   0.41120822     0.41361863     0.40791354     0.00045875723  59.213983      2.4176937      0.081559671    72             72                   145 
    166300   0.40461524     0.4069305      0.40131766     0.00050712873  58.264595      2.4185301      0.085751773    72             72                   145 
    166400   0.39851313     0.40073229     0.39520494     0.00055982141  57.385891      2.4194092      0.090096673    72             72                   145 
    166500   0.39442302     0.39655662     0.39108688     0.00061597941  56.796914      2.4203322      0.094507679    72             72                   145 
    166600   0.39351096     0.39557886     0.3901226      0.00067448832  56.665578      2.4212993      0.09889429     72             72                   145 
    166700   0.39599787     0.39802277     0.3925328      0.00073404875  57.023693      2.4223097      0.10316834     72             72                   145 
    166800   0.40085315     0.40285195     0.39729537     0.00079327748  57.722854      2.423362       0.10724982     72             72                   145 
    166900   0.40630346     0.408282       0.40265053     0.00085084326  58.507698      2.4244539      0.11107307     72             72                   145 
    167000   0.41048231     0.41243415     0.4067454      0.00090599024  59.109452      2.4255825      0.11461614     72             72                   145 
    167100   0.41243598     0.41434863     0.40863348     0.00095811172  59.39078       2.4267452      0.11786696     72             72                   145 
    167200   0.41192614     0.41378585     0.40807846     0.0010068125   59.317364      2.4279389      0.12082542     72             72                   145 
    167300   0.40918699     0.41098166     0.40531295     0.0010520576   58.922926      2.4291608      0.12351046     72             72                   145 
    167400   0.404956       0.40667839     0.40106903     0.0010941656   58.313664      2.4304083      0.12595793     72             72                   145 
    167500   0.40039716     0.40204763     0.39650215     0.0011336545   57.657191      2.4316793      0.12821073     72             72                   145 
    167600   0.39663905     0.39822505     0.39273229     0.0011713178   57.116023      2.4329721      0.13032309     72             72                   145 
    167700   0.39446222     0.39599557     0.39053356     0.0012082311   56.802559      2.4342855      0.13236068     72             72                   145 
    167800   0.39390477     0.39539638     0.38994264     0.0012455415   56.722286      2.4356193      0.13438881     72             72                   145 
    167900   0.39452166     0.39597827     0.3905165      0.0012843226   56.811119      2.4369735      0.13646493     72             72                   145 
    168000   0.39538881     0.39680982     0.39133658     0.0013254078   56.935989      2.4383489      0.13863049     72             72                   145 
    168100   0.39570176     0.39708053     0.39160356     0.0013692218   56.981053      2.4397464      0.14090322     72             72                   145 
    168200   0.39553135     0.39686189     0.39138793     0.0014156243   56.956515      2.4411672      0.14327091     72             72                   145 
    168300   0.39507615     0.39635387     0.39088692     0.0014645633   56.890965      2.4426121      0.14572635     72             72                   145 
    168400   0.39454456     0.3957665      0.39030765     0.0015159069   56.814416      2.444082       0.14825873     72             72                   145 
    168500   0.39398043     0.39514567     0.38969539     0.0015679421   56.733182      2.4455773      0.15078183     72             72                   145 
    168600   0.39367981     0.39479148     0.38934608     0.0016187013   56.689893      2.4470973      0.15320303     72             72                   145 
    168700   0.39349078     0.39455276     0.38911065     0.0016664006   56.662672      2.4486407      0.15544391     72             72                   145 
    168800   0.39365764     0.39467684     0.38923302     0.0017097345   56.686699      2.4502054      0.15745206     72             72                   145 
    168900   0.39523821     0.39622971     0.39076447     0.0017479532   56.914302      2.4517889      0.15920214     72             72                   145 
    169000   0.39759589     0.39857056     0.39307304     0.0017808147   57.253808      2.4533886      0.16069167     72             72                   145 
    169100   0.39995167     0.40091479     0.39538493     0.001808459    57.593041      2.4550019      0.16193411     72             72                   145 
    169200   0.40196095     0.40291483     0.39735738     0.001831422    57.882377      2.4566265      0.16295895     72             72                   145 
    169300   0.40368804     0.40463255     0.39905141     0.0018525758   58.131078      2.4582608      0.16389738     72             72                   145 
    169400   0.40533036     0.40626481     0.40066116     0.0018738184   58.367571      2.4599045      0.16483436     72             72                   145 
    169500   0.40706337     0.40798708     0.40235968     0.0018963579   58.617125      2.4615577      0.16582277     73             71                   145 
    169600   0.40864716     0.40955669     0.40390763     0.0019212727   58.845191      2.4632213      0.16690852     73             71                   145 
    169700   0.40978581     0.41067468     0.4050102      0.0019494987   59.009156      2.4648963      0.1681301      73             71                   145 
    169800   0.40987995     0.41073666     0.40507133     0.0019818555   59.022712      2.4665844      0.16951963     73             71                   145 
    169900   0.40830112     0.4091083      0.40346543     0.0020198227   58.795362      2.4682875      0.1711357      73             71                   145 
    170000   0.40486162     0.4055997      0.40000522     0.00206425     58.300073      2.470008       0.17300759     73             71                   145 
    170100   0.39986636     0.40051757     0.39499319     0.0021154746   57.580756      2.4717485      0.17514103     73             71                   145 
    170200   0.39408293     0.39463422     0.38919099     0.002174124    56.747941      2.4735117      0.17755224     73             71                   145 
    170300   0.38860524     0.38905037     0.38368416     0.002241047    55.959154      2.4753006      0.1802642      73             71                   145 
    170400   0.38430111     0.38463931     0.37933394     0.0023168243   55.33936       2.477118       0.18328653     73             71                   145 
    170500   0.38166704     0.38190024     0.37663265     0.0024022074   54.960054      2.4789674      0.18663335     73             71                   145 
    170600   0.38090683     0.38103742     0.37578174     0.0024981487   54.850583      2.4808519      0.19032382     73             71                   145 
    170700   0.38205689     0.38208641     0.37681625     0.0026057685   55.016193      2.4827751      0.19438015     73             71                   145 
    170800   0.38487226     0.38479927     0.3794917      0.0027262671   55.421605      2.4847408      0.19882372     73             71                   145 
    170900   0.38877341     0.38859231     0.38323241     0.0028598009   55.983371      2.4867528      0.20363475     73             71                   145 
    171000   0.39321514     0.39291737     0.38749782     0.0030054919   56.62298       2.4888145      0.20875735     73             71                   145 
    171100   0.39775898     0.39733407     0.3918536      0.00316221     57.277292      2.4909288      0.21413091     73             71                   145 
    171200   0.40183597     0.40127213     0.39573734     0.0033273377   57.864379      2.4930976      0.21965063     73             71                   145 
    171300   0.40493245     0.40421892     0.39864349     0.003496329    58.310273      2.4953217      0.22515943     73             71                   145 
    171400   0.40651483     0.405644       0.40004891     0.0036623709   58.538135      2.4976         0.23044387     73             71                   145 
    171500   0.40646241     0.40543517     0.39984296     0.0038162634   58.530588      2.499929       0.23523567     73             71                   145 
    171600   0.40506978     0.4039006      0.39832956     0.003946642    58.330049      2.5023021      0.23922021     73             71                   145 
    171700   0.40302744     0.40174861     0.39620725     0.004040682    58.035951      2.5047095      0.24205349     73             71                   145 
    171800   0.40114567     0.39980832     0.39429373     0.0040854233   57.764977      2.5071381      0.24338989     73             71                   145 
    171900   0.40041133     0.39908469     0.39358007     0.0040697974   57.659231      2.5095713      0.24292398     73             71                   145 
    172000   0.40150064     0.40026533     0.39474443     0.003987248    57.816093      2.5119899      0.2404477      73             71                   145 
    172100   0.40454482     0.40348171     0.39791644     0.0038384118   58.254454      2.5143734      0.2359173      73             71                   145 
    172200   0.40909262     0.40826946     0.40263816     0.0036331284   58.909337      2.516702       0.22952203     73             71                   145 
    172300   0.41431979     0.41378013     0.40807281     0.0033896009   59.66205       2.5189591      0.22169622     73             71                   145 
    172400   0.41934133     0.41909975     0.41331907     0.0031302546   60.385152      2.5211332      0.21304622     73             71                   145 
    172500   0.42344072     0.42348433     0.41764317     0.0028772691   60.975464      2.5232195      0.20425573     73             71                   145 
    172600   0.42614436     0.42643937     0.42055744     0.0026479895   61.364788      2.5252199      0.19594859     73             71                   145 
    172700   0.42724522     0.42774605     0.42184611     0.0024525975   61.523312      2.5271416      0.18858066     73             71                   145 
    172800   0.42674523     0.42740298     0.42150777     0.0022943936   61.451314      2.5289955      0.18239711     73             71                   145 
    172900   0.424686       0.42545375     0.41958542     0.0021717027   61.154783      2.5307937      0.17745334     73             71                   145 
    173000   0.42108045     0.42191586     0.41609633     0.0020801145   60.635585      2.5325484      0.17367113     73             71                   145 
    173100   0.41583596     0.41670148     0.41095387     0.0020142566   59.880379      2.5342705      0.17089974     73             71                   145 
    173200   0.40898243     0.40984603     0.40419298     0.00196888     58.89347       2.5359692      0.16896378     73             71                   145 
    173300   0.40100708     0.40184387     0.39630119     0.001940322    57.74502       2.5376521      0.16773392     73             71                   145 
    173400   0.39261072     0.39340284     0.38797659     0.0019264706   56.535944      2.539326       0.16713415     73             71                   145 
    173500   0.38486249     0.38560311     0.38028445     0.0019238211   55.420199      2.5409964      0.16701918     73             71                   145 
    173600   0.37890796     0.37960115     0.37436528     0.0019295289   54.562747      2.5426676      0.16726676     73             71                   145 
    173700   0.37545546     0.37611254     0.37092478     0.0019413269   54.065586      2.5443426      0.16777735     73             71                   145 
    173800   0.37467553     0.375312       0.37013528     0.0019562806   53.953276      2.5460236      0.16842229     73             71                   145 
    173900   0.37627152     0.37690411     0.37170543     0.0019711137   54.183099      2.547711       0.1690596      73             71                   145 
    174000   0.37953738     0.38017823     0.37493439     0.0019854956   54.653383      2.5494047      0.16967524     73             71                   145 
    174100   0.38371547     0.3843716      0.37906992     0.0019992417   55.255028      2.5511045      0.17026158     73             71                   145 
    174200   0.38818273     0.38885691     0.38349337     0.002012241    55.898313      2.5528099      0.17081421     73             71                   145 
    174300   0.39246223     0.39315394     0.38773113     0.0020244631   56.514561      2.5545206      0.17133218     73             71                   145 
    174400   0.39605411     0.39675929     0.39128674     0.0020359578   57.031792      2.5562364      0.17181789     73             71                   145 
    174500   0.39817981     0.39888881     0.39338689     0.0020468469   57.337892      2.5579569      0.17227675     73             71                   145 
    174600   0.39811057     0.39880848     0.39330767     0.0020573132   57.327922      2.5596819      0.17271665     73             71                   145 
    174700   0.39554863     0.3962182      0.39075312     0.0020675888   56.959003      2.5614112      0.17314745     73             71                   145 
    174800   0.39060466     0.39122916     0.38583289     0.0020779448   56.247072      2.5631448      0.17358053     73             71                   145 
    174900   0.38412283     0.38469111     0.37938503     0.0020886837   55.313688      2.5648829      0.17402849     73             71                   145 
    175000   0.37747605     0.37798624     0.37277264     0.0021001323   54.356551      2.5666255      0.17450478     73             71                   145 
    175100   0.37204873     0.37250829     0.36737024     0.0021126337   53.575017      2.5683731      0.17502339     73             71                   145 
    175200   0.3693542      0.36978083     0.3646804      0.0021265338   53.187005      2.5701261      0.17559824     73             71                   145 
    175300   0.37010481     0.37052083     0.3654102      0.0021421619   53.295093      2.5718853      0.1762423      73             71                   145 
    175400   0.37388551     0.37431008     0.36914718     0.0021598021   53.839513      2.5736513      0.17696647     73             71                   145 
    175500   0.37945921     0.37990262     0.37466259     0.0021796597   54.642126      2.5754249      0.17777814     73             71                   145 
    175600   0.38520586     0.38566699     0.38034744     0.0022018238   55.469644      2.5772071      0.17867973     73             71                   145 
    175700   0.38953683     0.3900035      0.38462414     0.0022262362   56.093304      2.5789988      0.17966754     73             71                   145 
    175800   0.39186252     0.39231864     0.38690735     0.0022526709   56.428203      2.5808007      0.18073109     73             71                   145 
    175900   0.39235734     0.39278846     0.38737069     0.0022807349   56.499456      2.5826136      0.18185339     73             71                   145 
    176000   0.39157232     0.39196839     0.38656193     0.0023098904   56.386414      2.5844379      0.18301205     73             71                   145 
    176100   0.38989383     0.39024814     0.38486541     0.0023394988   56.144712      2.5862739      0.18418125     73             71                   145 
    176200   0.38733631     0.38764295     0.38229615     0.0023688779   55.776429      2.5881215      0.1853341      73             71                   145 
    176300   0.38380978     0.38406287     0.37876546     0.0023973632   55.268609      2.5899804      0.18644508     73             71                   145 
    176400   0.37955017     0.3797461      0.37450822     0.0024243615   54.655224      2.5918502      0.18749198     73             71                   145 
    176500   0.37539233     0.37553381     0.37035403     0.0024493892   54.056496      2.59373        0.18845727     73             71                   145 
    176600   0.37302256     0.37312444     0.3679779      0.0024720929   53.715249      2.595619       0.18932867     73             71                   145 
    176700   0.37380339     0.37389029     0.36873318     0.0024922513   53.827687      2.5975162      0.19009904     73             71                   145 
    176800   0.37829217     0.3783927      0.37317349     0.0025097649   54.474072      2.5994206      0.1907658      73             71                   145 
    176900   0.38582635     0.38596449     0.38064084     0.0025246356   55.558994      2.6013312      0.19133012     73             71                   145 
    177000   0.3948149      0.39500341     0.38955509     0.0025369442   56.853345      2.6032469      0.19179596     73             71                   145 
    177100   0.403715       0.40395573     0.39838393     0.0025468274   58.13496       2.6051668      0.19216919     73             71                   145 
    177200   0.41131271     0.41159884     0.40592161     0.0025544574   59.22903       2.60709        0.19245683     73             71                   145 
    177300   0.41663968     0.41695741     0.41120628     0.0025600256   59.996114      2.6090157      0.19266648     73             71                   145 
    177400   0.4191155      0.41944679     0.41366132     0.0025637302   60.352633      2.6109431      0.19280583     73             71                   145 
    177500   0.41846787     0.41879256     0.41301612     0.0025657685   60.259373      2.6128716      0.19288246     73             71                   145 
    177600   0.41472276     0.41502069     0.40929627     0.0025663406   59.720078      2.6148006      0.19290396     73             71                   145 
    177700   0.4083781      0.40863166     0.40299536     0.0025663406   58.806446      2.6167296      0.19290396     73             71                   145 
    177800   0.40050306     0.40070155     0.39517463     0.0025663406   57.672441      2.6186587      0.19290396     73             71                   145 
    177900   0.39264671     0.39279026     0.38737246     0.0025663406   56.541127      2.6205877      0.19290396     73             71                   145 
    178000   0.38639207     0.38649188     0.38116096     0.0025663406   55.640458      2.6225167      0.19290396     73             71                   145 
    178100   0.38292309     0.38299864     0.3777159      0.0025663406   55.140925      2.6244458      0.19290396     73             71                   145 
    178200   0.38200371     0.38207283     0.37680286     0.0025663406   55.008535      2.6263748      0.19290396     73             71                   145 
    178300   0.3821576      0.3822278      0.37695569     0.0025663406   55.030694      2.6283039      0.19290396     73             71                   145 
    178400   0.3826201      0.38269353     0.377415       0.0025663406   55.097295      2.6302329      0.19290396     73             71                   145 
    178500   0.38309637     0.38317314     0.37788799     0.0025663406   55.165878      2.6321619      0.19290396     73             71                   145 
    178600   0.38384302     0.38392501     0.37862949     0.0025663406   55.273395      2.634091       0.19290396     73             71                   145 
    178700   0.3849941      0.38508456     0.37977305     0.0025659199   55.43915       2.63602        0.19288815     73             71                   145 
    178800   0.38635767     0.38645941     0.38112893     0.0025642018   55.635504      2.6379486      0.19282356     73             71                   145 
    178900   0.38736589     0.38747783     0.38213331     0.0025610972   55.780689      2.6398763      0.19270679     73             71                   145 
    179000   0.38752147     0.38763911     0.38229236     0.0025565447   55.803092      2.6418025      0.19253545     73             71                   145 
    179100   0.3860974      0.38621122     0.38088417     0.002550491    55.598026      2.6437268      0.19230736     73             71                   145 
    179200   0.38307087     0.38317123     0.37788611     0.0025428921   55.162205      2.6456485      0.19202066     73             71                   145 
    179300   0.37947175     0.37955615     0.37432089     0.0025338144   54.643932      2.647567       0.19167762     73             71                   145 
    179400   0.37618248     0.37625321     0.37106351     0.0025246008   54.170277      2.649482       0.19132881     73             71                   145 
    179500   0.37412495     0.37419003     0.36902878     0.0025159926   53.873993      2.6513937      0.19100234     73             71                   145 
    179600   0.37385122     0.37392204     0.3687645      0.0025084349   53.834575      2.6533022      0.19071525     73             71                   145 
    179700   0.3756656      0.3757552      0.37057237     0.0025024332   54.095846      2.6552082      0.19048696     73             71                   145 
    179800   0.37929273     0.37941163     0.37417836     0.00249855     54.618153      2.6571122      0.19033911     73             71                   145 
    179900   0.38408228     0.38423585     0.37893604     0.0024973923   55.307848      2.6590153      0.190295       73             71                   145 
    180000   0.38934388     0.38953201     0.38415916     0.0024995904   56.065519      2.6609185      0.19037873     73             71                   145 
    180100   0.39331425     0.39352388     0.38809597     0.0025057676   56.637251      2.6628234      0.19061382     73             71                   145 
    180200   0.3967469      0.39696966     0.39149422     0.0025164971   57.131554      2.6647314      0.19102149     73             71                   145 
    180300   0.39942802     0.39965356     0.3941411      0.0025322482   57.517635      2.6666444      0.19161837     73             71                   145 
    180400   0.4010856      0.40130137     0.39576618     0.0025533209   57.756327      2.6685644      0.19241402     73             71                   145 
    180500   0.40175677     0.4019504      0.39640626     0.0025797747   57.852975      2.6704934      0.1934082      73             71                   145 
    180600   0.4016813      0.40184238     0.39629973     0.0026113582   57.842107      2.6724332      0.19458852     73             71                   145 
    180700   0.40127021     0.40139182     0.39585538     0.0026474514   57.782911      2.6743857      0.19592867     73             71                   145 
    180800   0.40091401     0.40099299     0.39546205     0.0026870349   57.731618      2.6763522      0.19738796     73             71                   145 
    180900   0.40065124     0.40068613     0.39515943     0.0027286979   57.693778      2.6783336      0.19891234     73             71                   145 
    181000   0.40016065     0.40014953     0.39463022     0.0027706958   57.623133      2.6803304      0.20043724     73             71                   145 
    181100   0.4003134      0.40026243     0.39474157     0.0028110564   57.64513       2.6823422      0.20189185     73             71                   145 
    181200   0.40071045     0.40062506     0.3950992      0.0028477272   57.702304      2.6843678      0.20320444     73             71                   145 
    181300   0.40124006     0.40112693     0.39559415     0.0028787413   57.778569      2.6864055      0.20430797     73             71                   145 
    181400   0.40165256     0.40151835     0.39598016     0.00290238     57.837969      2.6884531      0.20514509     73             71                   145 
    181500   0.4019801      0.40183304     0.39629052     0.002917307    57.885134      2.6905074      0.20567195     73             71                   145 
    181600   0.40253638     0.40238779     0.39683761     0.0029226569   57.965239      2.6925654      0.20586045     73             71                   145 
    181700   0.4035401      0.40340317     0.39783899     0.0029180712   58.109774      2.6946235      0.20569889     73             71                   145 
    181800   0.40533479     0.405225       0.39963569     0.0029036839   58.36821       2.6966782      0.20519117     73             71                   145 
    181900   0.40776883     0.40770001     0.40207656     0.002880065    58.718711      2.6987262      0.20435494     73             71                   145 
    182000   0.4095807      0.40955693     0.40390787     0.0028481401   58.979621      2.7007643      0.20321917     73             71                   145 
    182100   0.41147203     0.41150107     0.40582519     0.0028090967   59.251972      2.7027897      0.20182146     73             71                   145 
    182200   0.4126579      0.41274067     0.40704769     0.0027642876   59.422737      2.7048         0.20020532     73             71                   145 
    182300   0.4134979      0.41363638     0.40793105     0.0027151389   59.543698      2.7067932      0.19841753     73             71                   145 
    182400   0.41434718     0.4145444      0.40882655     0.0026630689   59.665994      2.7087679      0.19650572     73             71                   145 
    182500   0.41523733     0.41549517     0.4097642      0.002609422    59.794176      2.7107231      0.19451637     73             71                   145 
    182600   0.41597828     0.41629606     0.41055405     0.0025554187   59.900872      2.7126581      0.19249304     73             71                   145 
    182700   0.41610445     0.41647716     0.41073265     0.0025021167   59.91904       2.714573       0.19047491     73             71                   145 
    182800   0.41536732     0.41578612     0.41005114     0.0024515804   59.812894      2.7164679      0.18854155     73             71                   145 
    182900   0.41362274     0.41407626     0.40836486     0.0024053138   59.561675      2.7183443      0.18675398     73             71                   145 
    183000   0.41089805     0.41137497     0.40570083     0.0023634395   59.169319      2.7202035      0.18512124     73             71                   145 
    183100   0.40722717     0.4077164      0.40209272     0.0023259837   58.640712      2.7220472      0.18364848     73             71                   145 
    183200   0.40287043     0.40336275     0.39779912     0.0022928901   58.013342      2.723877       0.18233734     73             71                   145 
    183300   0.39796709     0.39845437     0.39295845     0.0022640354   57.30726       2.7256945      0.18118641     73             71                   145 
    183400   0.3945284      0.39501677     0.38956827     0.002239244    56.812089      2.7275013      0.18019167     73             71                   145 
    183500   0.39369839     0.3942022      0.38876493     0.0022183024   56.692569      2.7292989      0.17934711     73             71                   145 
    183600   0.39591843     0.39645534     0.39098699     0.0022009718   57.012255      2.7310887      0.17864515     73             71                   145 
    183700   0.40065913     0.40124336     0.39570896     0.0021869985   57.694915      2.7328722      0.17807717     73             71                   145 
    183800   0.40664077     0.40727785     0.40166023     0.0021761234   58.556271      2.7346507      0.17763386     73             71                   145 
    183900   0.41220793     0.41289209     0.40719703     0.0021680882   59.357942      2.7364253      0.17730561     73             71                   145 
    184000   0.41602325     0.41673961     0.41099148     0.0021626414   59.907348      2.7381971      0.17708275     73             71                   145 
    184100   0.41782897     0.41856111     0.41278785     0.0021595416   60.167372      2.7399672      0.17695579     73             71                   145 
    184200   0.41747494     0.41820559     0.41243724     0.0021585607   60.116391      2.7417365      0.1769156      73             71                   145 
    184300   0.4153387      0.41605441     0.41031573     0.0021585607   59.808772      2.7435057      0.1769156      73             71                   145 
    184400   0.41203065     0.41272324     0.4070305      0.0021585607   59.332414      2.7452748      0.1769156      73             71                   145 
    184500   0.40819447     0.40886022     0.40322077     0.0021585607   58.780003      2.747044       0.1769156      73             71                   145 
    184600   0.40422667     0.40486468     0.39928034     0.0021585617   58.208641      2.7488131      0.17691564     73             71                   145 
    184700   0.40020586     0.40081492     0.39528643     0.0021593817   57.629643      2.7505824      0.17694924     73             71                   145 
    184800   0.39636721     0.39694698     0.39147185     0.0021617976   57.076879      2.7523524      0.1770482      73             71                   145 
    184900   0.39143621     0.39197733     0.38657074     0.0021659117   56.366815      2.7541236      0.17721659     73             71                   145 
    185000   0.38494235     0.38543206     0.38011575     0.0021718237   55.431699      2.7558969      0.17745829     73             71                   145 
    185100   0.37875462     0.37919314     0.37396289     0.0021796281   54.540665      2.757673       0.17777685     73             71                   145 
    185200   0.37334466     0.37373543     0.36858046     0.0021894118   53.761631      2.7594527      0.17817539     73             71                   145 
    185300   0.36956563     0.36991797     0.36481565     0.0022012506   53.21745       2.7612368      0.17865647     73             71                   145 
    185400   0.36855869     0.36888984     0.3638017      0.0022152061   53.072451      2.7630261      0.1792219      73             71                   145 
    185500   0.37109701     0.37142957     0.3663064      0.0022313218   53.43797       2.7648215      0.17987264     73             71                   145 
    185600   0.3765481      0.37690022     0.3717016      0.0022496191   54.222926      2.7666239      0.18060863     73             71                   145 
    185700   0.38298566     0.38336204     0.37807429     0.0022700939   55.149936      2.768434       0.18142867     73             71                   145 
    185800   0.38769867     0.38808507     0.38273217     0.0022927122   55.828608      2.7702527      0.18233027     73             71                   145 
    185900   0.39103759     0.3914223      0.38602338     0.0023174075   56.309414      2.7720809      0.1833096      73             71                   145 
    186000   0.39394783     0.39432584     0.38888687     0.0023440775   56.728487      2.7739192      0.1843614      73             71                   145 
    186100   0.39730665     0.39767925     0.39219402     0.0023725831   57.212158      2.7757683      0.18547899     73             71                   145 
    186200   0.40095989     0.40132745     0.3957919      0.0024027473   57.738224      2.7776289      0.18665432     73             71                   145 
    186300   0.40406064     0.4044185      0.39884031     0.002433702    58.184732      2.7795015      0.18785281     73             71                   145 
    186400   0.40575322     0.40609448     0.40049318     0.0024617495   58.428464      2.7813856      0.18893218     73             71                   145 
    186500   0.40661782     0.40694176     0.40132877     0.0024847898   58.552966      2.7832795      0.18981426     73             71                   145 
    186600   0.40788302     0.40819915     0.40256882     0.0025012121   58.735154      2.785181       0.19044048     73             71                   145 
    186700   0.41054141     0.410868       0.40520085     0.0025092398   59.117963      2.7870872      0.19074584     73             71                   145 
    186800   0.41464688     0.41500447     0.40928027     0.0025069689   59.70915       2.7889946      0.19065951     73             71                   145 
    186900   0.41909817     0.41950163     0.4137154      0.0024924449   60.350137      2.7908989      0.19010642     73             71                   145 
    187000   0.42325049     0.42371204     0.41786773     0.0024637821   60.94807       2.7927949      0.18901016     73             71                   145 
    187100   0.42638319     0.42691172     0.42102329     0.0024193311   61.399179      2.794677       0.18729736     73             71                   145 
    187200   0.42778627     0.42838691     0.42247813     0.0023578932   61.601223      2.7965386      0.1849039      73             71                   145 
    187300   0.42710216     0.42777804     0.42187766     0.0022789682   61.502711      2.7983727      0.18178294     73             71                   145 
    187400   0.42451203     0.42526711     0.41940136     0.0021829985   61.129732      2.8001718      0.17791424     73             71                   145 
    187500   0.42001092     0.42084754     0.41504274     0.002071555    60.481573      2.8019285      0.17331344     73             71                   145 
    187600   0.41424722     0.41516942     0.40944295     0.0019473974   59.6516        2.8036358      0.16803947     73             71                   145 
    187700   0.40790548     0.40891824     0.40327799     0.0018143493   58.738388      2.8052874      0.16219761     73             71                   145 
    187800   0.40184741     0.40295711     0.39739908     0.0016769685   57.866027      2.8068783      0.15593603     73             71                   145 
    187900   0.39700775     0.39822243     0.39272971     0.0015400551   57.169116      2.8084053      0.14943493     73             71                   145 
    188000   0.39382368     0.3951499      0.38969956     0.0014080965   56.71061       2.8098669      0.14288947     73             71                   145 
    188100   0.39218805     0.39362787     0.38819852     0.0012847821   56.475079      2.8112636      0.13648934     73             71                   145 
    188200   0.39165779     0.39320756     0.38778401     0.0011726928   56.398722      2.8125977      0.13039956     73             71                   145 
    188300   0.39192516     0.39357768     0.38814902     0.0010732127   56.437224      2.813873       0.12474608     73             71                   145 
    188400   0.39298342     0.39473112     0.38928655     0.0009866351   56.589612      2.8150944      0.11960857     73             71                   145 
    188500   0.39492575     0.39676231     0.39128973     0.00091239385  56.869308      2.8162671      0.11502048     73             71                   145 
    188600   0.3975747      0.39949372     0.39398347     0.00084933702  57.250756      2.8173966      0.11097471     73             71                   145 
    188700   0.40074539     0.40274069     0.39718565     0.00079598122  57.707337      2.8184882      0.10743243     73             71                   145 
    188800   0.4041203      0.40618511     0.40058256     0.00075071263  58.193324      2.8195467      0.1043328      73             71                   145 
    188900   0.40705421     0.40917885     0.403535       0.00071193297  58.615806      2.8205761      0.1016023      73             71                   145 
    189000   0.40894957     0.41112135     0.40545071     0.00067851855  58.888738      2.8215798      0.099189309    73             71                   145 
    189100   0.40912096     0.4113236      0.40565017     0.00064926429  58.913418      2.8225607      0.097027482    73             71                   145 
    189200   0.40747089     0.40968875     0.40403787     0.00062288207  58.675809      2.8235209      0.09503573     73             71                   145 
    189300   0.40445006     0.40667176     0.4010625      0.00059825357  58.240809      2.8244618      0.093137945    73             71                   145 
    189400   0.40111182     0.40333434     0.39777111     0.00057442533  57.760102      2.8253838      0.091264272    73             71                   145 
    189500   0.39627698     0.39848984     0.39299343     0.00055060508  57.063885      2.8262869      0.089351965    73             71                   145 
    189600   0.3912165      0.39341876     0.3879923      0.00052616218  56.335176      2.8271705      0.087346159    73             71                   145 
    189700   0.38729611     0.38949684     0.38412447     0.00050063286  55.77064       2.8280334      0.085200801    73             71                   145 
    189800   0.3855021      0.38771757     0.38236974     0.00047372873  55.512303      2.8288739      0.082879832    73             71                   145 
    189900   0.3856461      0.3878913      0.38254108     0.00044539568  55.533039      2.8296903      0.080363159    73             71                   145 
    190000   0.38933646     0.39163752     0.38623563     0.0004157521   56.06445       2.8304805      0.077642807    73             71                   145 
    190100   0.39469804     0.39706774     0.39159094     0.0003850468   56.836518      2.8312425      0.074720671    73             71                   145 
    190200   0.39919351     0.40162644     0.39608677     0.00035368054  57.483865      2.8319743      0.071612623    73             71                   145 
    190300   0.4011927      0.40367157     0.39810369     0.00032217166  57.771749      2.8326742      0.068348293    73             71                   145 
    190400   0.40046971     0.40297502     0.39741674     0.00029110844  57.667638      2.8333409      0.06496978     73             71                   145 
    190500   0.39696013     0.39947133     0.39396138     0.00026109298  57.162258      2.8339734      0.061529247    73             71                   145 
    190600   0.39333833     0.39585301     0.39039296     0.00023268356  56.640719      2.8345715      0.058085382    73             71                   145 
    190700   0.39077734     0.39330082     0.38787598     0.00020633851  56.271937      2.8351353      0.05469834     73             71                   145 
    190800   0.38976245     0.39230313     0.38689205     0.0001823821   56.125793      2.8356658      0.051425096    73             71                   145 
    190900   0.39018294     0.39274824     0.38733102     0.00016099729  56.186343      2.8361644      0.048316257    73             71                   145 
    191000   0.39141215     0.39400508     0.38857052     0.00014223472  56.36335       2.8366328      0.045413692    73             71                   145 
    191100   0.392736       0.39535461     0.38990144     0.0001260334   56.553984      2.8370734      0.042749085    73             71                   145 
    191200   0.39359762     0.39623623     0.3907709      0.00011224801  56.678057      2.8374887      0.040343477    73             71                   145 
    191300   0.39420808     0.39686269     0.39138872     0.00010067769  56.765963      2.8378812      0.038207677    73             71                   145 
    191400   0.39478416     0.39745253     0.39197042     9.1091332e-05  56.848919      2.8382537      0.036343147    72             72                   145 
    191500   0.39501121     0.39768911     0.39220375     8.3245666e-05  56.881614      2.8386089      0.0347428      72             72                   145 
    191600   0.39408361     0.39676146     0.39128889     7.6900831e-05  56.74804       2.8389494      0.033392545    72             72                   145 
    191700   0.39112648     0.39378879     0.38835722     7.1831629e-05  56.322213      2.8392776      0.032273187    72             72                   145 
    191800   0.38588784     0.38851757     0.38315871     6.7833688e-05  55.567849      2.8395956      0.031362214    72             72                   145 
    191900   0.37905858     0.38164371     0.37637966     6.4725796e-05  54.584436      2.8399054      0.03063534     72             72                   145 
    192000   0.37216748     0.37470683     0.36953846     6.2349708e-05  53.592117      2.8402088      0.030067769    72             72                   145 
    192100   0.3672719      0.36977882     0.36467842     6.0568512e-05  52.887154      2.8405072      0.029635172    72             72                   145 
    192200   0.36614299     0.36864334     0.3635586      5.9264349e-05  52.724591      2.8408019      0.029314383    72             72                   145 
    192300   0.36940238     0.37192647     0.36679645     5.8335969e-05  53.193943      2.8410938      0.029083871    72             72                   145 
    192400   0.37631938     0.37889248     0.37366638     5.7696422e-05  54.189991      2.8413838      0.028924006    72             72                   145 
    192500   0.38518681     0.38782235     0.38247308     5.7270967e-05  55.466901      2.8416725      0.028817165    72             72                   145 
    192600   0.39389933     0.39659608     0.39112579     5.6995255e-05  56.721504      2.8419603      0.028747716    72             72                   145 
    192700   0.40085705     0.40360264     0.3980357      5.6813761e-05  57.723415      2.8422475      0.028701908    72             72                   145 
    192800   0.40499837     0.40777306     0.4021486      5.6678475e-05  58.319766      2.8425344      0.028667715    72             72                   145 
    192900   0.40676748     0.40955467     0.40390564     5.6547834e-05  58.574517      2.8428209      0.028634657    72             72                   145 
    193000   0.40666702     0.40945367     0.40380603     5.6385912e-05  58.560051      2.843107       0.028593631    72             72                   145 
    193100   0.40542791     0.40820613     0.4025757      5.6161828e-05  58.38162       2.8433927      0.028536757    72             72                   145 
    193200   0.40359257     0.40635827     0.40075332     5.5849377e-05  58.11733       2.8436777      0.028457266    72             72                   145 
    193300   0.4026483      0.40540782     0.39981598     5.5426814e-05  57.981354      2.8439617      0.028349406    72             72                   145 
    193400   0.40315889     0.40592254     0.40032361     5.4876759e-05  58.054881      2.8442446      0.028208385    72             72                   145 
    193500   0.40506564     0.40784332     0.4022179      5.4186121e-05  58.329452      2.8445258      0.028030318    72             72                   145 
    193600   0.40793995     0.41073859     0.40507323     5.334593e-05   58.743353      2.844805       0.027812155    72             72                   145 
    193700   0.41115315     0.41397526     0.40826526     5.2351155e-05  59.206054      2.8450819      0.02755162     72             72                   145 
    193800   0.41410133     0.41694523     0.41119426     5.1200391e-05  59.630591      2.8453559      0.027247122    72             72                   145 
    193900   0.41633046     0.41919127     0.41340932     4.9894704e-05  59.951586      2.8456267      0.026897457    72             72                   145 
    194000   0.4174247      0.42029464     0.41449748     4.8436306e-05  60.109157      2.8458937      0.026501442    72             72                   145 
    194100   0.41716788     0.42003765     0.41424403     4.6828268e-05  60.072174      2.8461565      0.026057818    72             72                   145 
    194200   0.41563086     0.41849166     0.41271936     4.5074412e-05  59.850843      2.8464147      0.025565191    72             72                   145 
    194300   0.41303679     0.41588138     0.41014508     4.3179352e-05  59.477298      2.8466677      0.025022002    72             72                   145 
    194400   0.40972782     0.41255133     0.40686097     4.1148748e-05  59.000807      2.846915       0.02442656     72             72                   145 
    194500   0.40610363     0.40890398     0.40326392     3.8989872e-05  58.478922      2.847156       0.023777156    72             72                   145 
    194600   0.40263691     0.40541533     0.39982339     3.6712461e-05  57.979715      2.8473903      0.023072293    72             72                   145 
    194700   0.39960095     0.40236056     0.39681075     3.4329739e-05  57.542537      2.8476173      0.022311011    72             72                   145 
    194800   0.39745572     0.40020282     0.39468278     3.1859391e-05  57.233623      2.8478364      0.021493282    72             72                   145 
    194900   0.39651729     0.3992604      0.39375336     2.9324193e-05  57.098489      2.848047       0.020620398    71             73                   145 
    195000   0.39647877     0.39922422     0.39371768     2.6752037e-05  57.092943      2.8482486      0.019695292    71             73                   145 
    195100   0.39696235     0.3997138      0.39420051     2.4175244e-05  57.162579      2.8484407      0.018722741    71             73                   145 
    195200   0.39744519     0.40020256     0.39468252     2.1660899e-05  57.232107      2.848623       0.017722388    71             73                   145 
    195300   0.39739219     0.4001516      0.39463227     1.9288386e-05  57.224476      2.8487952      0.016723684    71             73                   145 
    195400   0.39654918     0.39930493     0.39379727     1.7089756e-05  57.103082      2.8489575      0.015741711    71             73                   145 
    195500   0.39507555     0.39782302     0.3923358      1.5090882e-05  56.89088       2.8491101      0.014792491    71             73                   145 
    195600   0.39361895     0.39635804     0.39089103     1.3310398e-05  56.681129      2.8492535      0.013892472    71             73                   145 
    195700   0.39312908     0.39586631     0.39040608     1.1759188e-05  56.610587      2.8493882      0.01305788     71             73                   145 
    195800   0.39414017     0.3968858      0.39141152     1.0440768e-05  56.756184      2.8495149      0.01230411     71             73                   145 
    195900   0.39635309     0.39911531     0.39361027     9.352464e-06   57.074845      2.8496346      0.011645202    72             72                   145 
    196000   0.39862354     0.40140251     0.39586592     8.4865548e-06  57.40179       2.8497482      0.011093018    72             72                   145 
    196100   0.39997826     0.40276743     0.39721201     7.7721069e-06  57.596869      2.8498567      0.010615816    72             72                   145 
    196200   0.39951092     0.40229745     0.39674852     7.1573983e-06  57.529573      2.8499607      0.010187359    72             72                   145 
    196300   0.39699372     0.39976318     0.3942492      6.6282212e-06  57.167095      2.8500606      0.0098035304   72             72                   145 
    196400   0.39318911     0.39593243     0.39047129     6.1683563e-06  56.619232      2.8501569      0.009457334    72             72                   145 
    196500   0.38976435     0.39248413     0.38707056     5.7600766e-06  56.126066      2.8502498      0.0091389885   72             72                   145 
    196600   0.38862616     0.39133836     0.38594059     5.3845945e-06  55.962166      2.8503397      0.0088360976   72             72                   145 
    196700   0.39066013     0.39338693     0.3879609      5.0226059e-06  56.255059      2.8504265      0.0085339197   72             72                   145 
    196800   0.39514899     0.39790755     0.39241917     4.6551091e-06  56.901455      2.8505103      0.0082157825   72             72                   145 
    196900   0.40042714     0.40322301     0.39766131     4.2646506e-06  57.661508      2.8505907      0.0078636781   72             72                   145 
    197000   0.40500336     0.40783166     0.40220639     3.8370825e-06  58.320483      2.8506674      0.007459068    72             72                   145 
    197100   0.40808139     0.4109317      0.40526367     3.3637793e-06  58.763721      2.8507397      0.0069838957   72             72                   145 
    197200   0.40959887     0.41246031     0.40677121     2.8440906e-06  58.982237      2.8508068      0.0064217843   72             72                   145 
    197300   0.40979572     0.4126591      0.40696725     2.2875967e-06  59.010583      2.8508678      0.0057593535   72             72                   145 
    197400   0.40912778     0.41198707     0.40630449     1.7155664e-06  58.9144        2.8509216      0.0049875558   72             72                   145 
    197500   0.40818892     0.41104222     0.40537267     1.153248e-06   58.779205      2.8509671      0.0040892659   72             72                   145 
    197600   0.40751473     0.41036384     0.40470365     6.3669836e-07  58.682122      2.8510029      0.0030384414   72             72                   145 
    197700   0.40725224     0.41009992     0.40444337     2.3555773e-07  58.644322      2.8510274      0.0018481307   72             72                   145 
    197800   0.40731948     0.41016785     0.40451036     2.0082573e-08  58.654006      2.8510395      0.00053962701  72             72                   145 
    197900   0.40754984     0.41039979     0.4047391      5.0936768e-08  58.687177      2.8510379     -0.00085940859  72             72                   145 
    198000   0.40770342     0.41055412     0.40489131     3.7002694e-07  58.709293      2.8510221     -0.0023163313   72             72                   145 
    198100   0.40734475     0.41019231     0.40453448     9.9350817e-07  58.657644      2.8509915     -0.0037955064   72             72                   145 
    198200   0.40652544     0.40936634     0.4037199      1.9086109e-06  58.539663      2.8509462     -0.0052606898   72             72                   145 
    198300   0.4054978      0.40833033     0.40269819     3.0750988e-06  58.391683      2.8508865     -0.0066774945   72             72                   145 
    198400   0.40474224     0.40756811     0.40194648     4.431044e-06   58.282882      2.8508129     -0.0080156184   72             72                   145 
    198500   0.4049552      0.40778107     0.4021565      5.9015755e-06  58.313548      2.8507265     -0.0092505592   72             72                   145 
    198600   0.40653206     0.40936743     0.40372098     7.4086753e-06  58.540616      2.8506283     -0.010364641    72             72                   145 
    198700   0.40913041     0.41198246     0.40629995     8.8800968e-06  58.91478       2.8505197     -0.011347308    72             72                   145 
    198800   0.41119654     0.41406164     0.40835044     1.0255946e-05  59.212301      2.8504018     -0.012194721    72             72                   145 
    198900   0.41220918     0.41508011     0.40935486     1.1492295e-05  59.358122      2.8502762     -0.012908845    72             72                   145 
    199000   0.41121473     0.41407762     0.40836621     1.2562372e-05  59.214922      2.8501441     -0.013496459    73             71                   145 
    199100   0.40781039     0.41064857     0.40498445     1.3456263e-05  58.724697      2.8500067     -0.013968386    73             71                   145 
    199200   0.40205853     0.40485575     0.39927153     1.4178157e-05  57.896428      2.849865      -0.014338176    73             71                   145 
    199300   0.39455385     0.39729806     0.39181808     1.4705524e-05  56.815754      2.8497202     -0.0146024      73             71                   145 
    199400   0.38622245     0.38890809     0.38354384     1.5012361e-05  55.616033      2.8495734     -0.014753956    73             71                   145 
    199500   0.37812595     0.38075484     0.37550305     1.5133731e-05  54.450136      2.8494255     -0.014813477    73             71                   145 
    199600   0.371331       0.37391237     0.36875496     1.5139518e-05  53.471665      2.8492773     -0.014816309    73             71                   145 
    199700   0.36693981     0.36949047     0.36439405     1.5139518e-05  52.839332      2.8491291     -0.014816309    75             69                   145 
    199800   0.36521451     0.3677531      0.36268065     1.5139518e-05  52.590889      2.848981      -0.014816309    75             69                   145 
    199900   0.36590271     0.36844612     0.3633641      1.5139518e-05  52.68999       2.8488328     -0.014816309    75             69                   145 
    200000   0.36849472     0.37105625     0.36593823     1.5139518e-05  53.063239      2.8486847     -0.014816309    75             69                   145 
    200100   0.37250299     0.37509256     0.36991887     1.5139518e-05  53.640431      2.8485365     -0.014816309    75             69                   145 
    200200   0.37744241     0.38006652     0.37482422     1.5139518e-05  54.351707      2.8483883     -0.014816309    75             69                   145 
    200300   0.38257488     0.38523488     0.3799213      1.5139518e-05  55.090783      2.8482402     -0.014816309    75             69                   145 
    200400   0.38680002     0.38948956     0.38411729     1.5139518e-05  55.699203      2.848092      -0.014816309    75             69                   145 
    200500   0.39004735     0.39275961     0.38734223     1.5139518e-05  56.166819      2.8479438     -0.014816309    75             69                   145 
    200600   0.39200874     0.39473471     0.38929009     1.5139518e-05  56.449258      2.8477957     -0.014816309    75             69                   145 
    200700   0.39304224     0.39577545     0.39031648     1.512689e-05   56.598083      2.8476475     -0.014810128    75             69                   145 
    200800   0.39400769     0.39674786     0.39127547     1.4919619e-05  56.737107      2.8474998     -0.014708313    75             69                   145 
    200900   0.39623434     0.39899062     0.3934873      1.4386612e-05  57.057745      2.8473539     -0.014443195    75             69                   145 
    201000   0.40051276     0.40329993     0.39773718     1.3425876e-05  57.673837      2.8472117     -0.013952606    75             69                   145 
    201100   0.40615811     0.40898627     0.40334508     1.1940221e-05  58.486768      2.8470759     -0.013158009    75             69                   145 
    201200   0.41139927     0.41426618     0.40855216     9.8711363e-06  59.241495      2.8469499     -0.011963757    75             69                   145 
    201300   0.41477032     0.41766345     0.41190257     7.2584178e-06  59.726925      2.8468383     -0.010258999    75             69                   145 
    201400   0.41542011     0.41832076     0.41255082     4.329573e-06   59.820496      2.8467468     -0.0079233079   75             69                   145 
    201500   0.41327603     0.41616444     0.41042424     1.6142504e-06  59.511748      2.8466823     -0.00483804     75             69                   145 
    201600   0.40881734     0.41167615     0.40599786     5.6500795e-08  58.869698      2.8466529     -0.00090513067  74             70                   145 
    201700   0.40258669     0.4054009      0.39980916     1.0634943e-06  57.972483      2.8466672      0.0039269158   74             70                   145 
    201800   0.39611755     0.39888111     0.3933793      6.4008992e-06  57.040927      2.8467343      0.0096339524   74             70                   145 
    201900   0.3908271      0.39354205     0.38811389     1.7858511e-05  56.279103      2.8468624      0.016091874    74             70                   145 
    202000   0.38742357     0.39009561     0.38471498     3.6699217e-05  55.788994      2.8470579      0.023068131    74             70                   145 
    202100   0.38582905     0.38846321     0.3831051      6.3061295e-05  55.559383      2.8473244      0.030238862    74             70                   145 
    202200   0.38555495     0.3881542      0.38280035     9.5606457e-05  55.519913      2.8476621      0.037232964    74             70                   145 
    202300   0.38619942     0.38876662     0.38340432     0.00013165653  55.612717      2.8480673      0.04369233     74             70                   145 
    202400   0.38749782     0.39003743     0.3846576      0.00016781874  55.799686      2.8485332      0.049329217    74             70                   145 
    202500   0.38885557     0.3913712      0.38597298     0.00020082918  55.995202      2.8490505      0.053963164    74             70                   145 
    202600   0.39005712     0.39255335     0.38713882     0.00022825472  56.168226      2.8496089      0.057529936    74             70                   145 
    202700   0.39062644     0.39310578     0.38768364     0.00024882623  56.250207      2.8501977      0.060066466    74             70                   145 
    202800   0.39017733     0.39263978     0.38722406     0.00026239352  56.185535      2.8508071      0.061682299    74             70                   145 
    202900   0.38889985     0.39134602     0.38594814     0.0002696394   56.001578      2.8514288      0.062528164    74             70                   145 
    203000   0.38737392     0.38980731     0.38443066     0.00027171868  55.781845      2.8520557      0.062768789    74             70                   145 
    203100   0.38631244     0.38874021     0.38337827     0.00026993992  55.628991      2.8526827      0.062562999    74             70                   145 
    203200   0.38646074     0.38889401     0.38352996     0.00026554227  55.650347      2.8533059      0.062051293    74             70                   145 
    203300   0.38814683     0.39059794     0.38521038     0.00025957177  55.893144      2.8539231      0.061349741    74             70                   145 
    203400   0.39114374     0.39362264     0.38819336     0.00025283646  56.324699      2.8545326      0.060548564    74             70                   145 
    203500   0.39503172     0.39754483     0.39206145     0.0002459131   56.884568      2.8551339      0.059713817    74             70                   145 
    203600   0.39884763     0.40139425     0.39585778     0.00023918104  57.434059      2.8557269      0.058890789    74             70                   145 
    203700   0.40150341     0.40407501     0.39850156     0.00023286556  57.816491      2.8563119      0.058108094    74             70                   145 
    203800   0.40236161     0.40494508     0.39935963     0.0002270799   57.940072      2.8568893      0.057381691    74             70                   145 
    203900   0.40137511     0.40395696     0.39838514     0.00022186096  57.798016      2.8574597      0.056718462    74             70                   145 
    204000   0.39914388     0.40171486     0.39617397     0.00021719717  57.476719      2.8580238      0.05611915     74             70                   145 
    204100   0.3965778      0.39913505     0.39362974     0.00021304887  57.107204      2.8585823      0.05558065     74             70                   145 
    204200   0.39435402     0.39689945     0.39142498     0.00020936264  56.786979      2.8591356      0.055097716    74             70                   145 
    204300   0.39254932     0.39508548     0.38963602     0.00020606315  56.527102      2.8596844      0.05466183     74             70                   145 
    204400   0.39047957     0.39300444     0.38758369     0.00020291957  56.229058      2.8602289      0.054243284    74             70                   145 
    204500   0.38729868     0.38980438     0.38442777     0.00019988785  55.77101       2.8607693      0.053836547    74             70                   145 
    204600   0.38279324     0.38527015     0.37995608     0.00019721138  55.122227      2.8613058      0.053474901    74             70                   145 
    204700   0.37750103     0.37994336     0.37470276     0.00019481067  54.360148      2.8618389      0.053148421    74             70                   145 
    204800   0.37284805     0.37526012     0.37008412     0.00019256065  53.690119      2.8623689      0.052840603    74             70                   145 
    204900   0.37058855     0.37298708     0.36784243     0.00019033567  53.364751      2.8628957      0.052534438    74             70                   145 
    205000   0.37198166     0.37439238     0.36922834     0.00018792403  53.565359      2.8634195      0.05220056     74             70                   145 
    205100   0.37697676     0.37942542     0.37419197     0.00018495217  54.284653      2.8639395      0.051786161    74             70                   145 
    205200   0.38410844     0.38661067     0.38127811     0.00018130752  55.311616      2.8644549      0.051273376    74             70                   145 
    205300   0.39150897     0.39406743     0.38863202     0.00017688776  56.377292      2.8649646      0.050644571    74             70                   145 
    205400   0.39789653     0.40050497     0.39498077     0.00017164796  57.2971        2.8654673      0.049888831    74             70                   145 
    205500   0.402787       0.40543526     0.39984305     0.00016611215  58.001329      2.8659622      0.049077757    74             70                   145 
    205600   0.40608737     0.40876449     0.40312636     0.00016041037  58.476582      2.8664487      0.048228108    74             70                   145 
    205700   0.40780313     0.4104982      0.40483616     0.00015453943  58.723651      2.8669266      0.047337318    74             70                   145 
    205800   0.40707134     0.4097674      0.40411544     0.00014851366  58.618273      2.8673953      0.04640526     74             70                   145 
    205900   0.40417446     0.40685649     0.40124468     0.00014237339  58.201123      2.8678546      0.045435825    74             70                   145 
    206000   0.40020322     0.40286374     0.397307       0.00013619319  57.629263      2.868304       0.044438735    74             70                   145 
    206100   0.39537308     0.39800602     0.39251628     0.00013008811  56.933724      2.8687433      0.043431297    74             70                   145 
    206200   0.39009614     0.39269814     0.38728161     0.00012421594  56.173845      2.8691726      0.042439736    74             70                   145 
    206300   0.38497361     0.38754529     0.38219984     0.00011877491  55.436199      2.8695923      0.041499833    74             70                   145 
    206400   0.38080411     0.38335148     0.37806388     0.00011399594  54.835791      2.870003       0.040656379    74             70                   145 
    206500   0.37806756     0.38059972     0.37535006     0.00011013003  54.441728      2.8704059      0.039961049    74             70                   145 
    206600   0.37769527     0.38022756     0.37498304     0.00010743237  54.388119      2.8708029      0.039468587    74             70                   145 
    206700   0.38010096     0.38265137     0.37737342     0.0001061457   54.734538      2.8711961      0.039231526    74             70                   145 
    206800   0.38465809     0.38724003     0.38189879     0.00010648474  55.390765      2.8715885      0.03929413     74             70                   145 
    206900   0.39060281     0.39322415     0.38780037     0.00010862219  56.246804      2.8719831      0.039686544    74             70                   145 
    207000   0.39599705     0.39865201     0.39315336     0.0001126757   57.023575      2.8723834      0.040420262    74             70                   145 
    207100   0.40081859     0.40350116     0.39793563     0.00011869491  57.717877      2.8727926      0.041485855    74             70                   145 
    207200   0.40461015     0.40731117     0.40169309     0.00012664868  58.263862      2.8732141      0.042853307    74             70                   145 
    207300   0.40744528     0.41015623     0.4044989      0.00013641539  58.672121      2.8736505      0.044474973    74             70                   145 
    207400   0.40969747     0.41241264     0.40672419     0.00014778202  58.996436      2.8741042      0.046290812    74             70                   145 
    207500   0.41163571     0.41435158     0.40863639     0.00016045384  59.275542      2.8745768      0.048234642    73             71                   145 
    207600   0.41335799     0.41607209     0.41033317     0.0001740747   59.52355       2.8750691      0.050240254    73             71                   145 
    207700   0.41479266     0.41750242     0.41174376     0.00018825537  59.730143      2.8755816      0.052246559    73             71                   145 
    207800   0.41534167     0.41804072     0.41227464     0.00020260502  59.809201      2.8761139      0.054201225    73             71                   145 
    207900   0.4157832      0.41847098     0.41269897     0.00021676024  59.87278       2.8766653      0.056062674    74             70                   145 
    208000   0.41640761     0.41908593     0.41330543     0.00023040716  59.962696      2.8772347      0.057800552    74             70                   145 
    208100   0.41679725     0.41946522     0.41367949     0.0002432928   60.018803      2.8778208      0.059394828    74             70                   145 
    208200   0.41707774     0.41973557     0.41394611     0.00025522933  60.059195      2.8784221      0.060834409    74             70                   145 
    208300   0.41688733     0.41953281     0.41374615     0.00026609299  60.031775      2.879037       0.062115604    74             70                   145 
    208400   0.41595353     0.41858301     0.41280945     0.00027543742  59.897309      2.8796638      0.063196856    74             70                   145 
    208500   0.41426893     0.41687926     0.4111292      0.00028270308  59.654726      2.8803001      0.064024953    74             70                   145 
    208600   0.41203477     0.41462407     0.40890511     0.00028803889  59.333007      2.8809435      0.064626341    74             70                   145 
    208700   0.40945645     0.41202407     0.40634098     0.00029163251  58.961729      2.8815919      0.065028236    74             70                   145 
    208800   0.40676894     0.40931569     0.40366996     0.00029368576  58.574728      2.8822435      0.065256751    74             70                   145 
    208900   0.40416335     0.40669115     0.40108161     0.00029440211  58.199522      2.8828966      0.065336288    74             70                   145 
    209000   0.40160295     0.40411283     0.39853886     0.00029440787  57.830824      2.88355        0.065336928    74             70                   145 
    209100   0.39938077     0.40187511     0.39633201     0.00029440787  57.51083       2.8842033      0.065336928    74             70                   145 
    209200   0.39779518     0.40027844     0.39475735     0.00029440787  57.282505      2.8848567      0.065336928    74             70                   145 
    209300   0.39724167     0.39972106     0.39420766     0.00029440787  57.2028        2.8855101      0.065336928    74             70                   145 
    209400   0.39808854     0.40057385     0.39504869     0.00029440787  57.32475       2.8861634      0.065336928    74             70                   145 
    209500   0.40027538     0.40277598     0.39722045     0.00029440787  57.639654      2.8868168      0.065336928    74             70                   145 
    209600   0.40250508     0.40502128     0.39943478     0.00029440787  57.960732      2.8874702      0.065336928    74             70                   145 
    209700   0.40362262     0.40614663     0.40054461     0.00029440787  58.121657      2.8881235      0.065336928    74             70                   145 
    209800   0.40209503     0.40460835     0.39902755     0.00029440787  57.901684      2.8887769      0.065336928    74             70                   145 
    209900   0.39781991     0.40030334     0.39478191     0.00029440787  57.286067      2.8894303      0.065336928    74             70                   145 
    210000   0.39011723     0.3925468      0.38713236     0.00029440787  56.176881      2.8900836      0.065336928    74             70                   145 
    210100   0.38039424     0.38275582     0.37747643     0.00029440787  54.776771      2.890737       0.065336928    74             70                   145 
    210200   0.37033058     0.37262178     0.36748217     0.00029440787  53.327604      2.8913904      0.065336928    74             70                   145 
    210300   0.36173679     0.36396789     0.35894764     0.00029440787  52.090098      2.8920438      0.065336928    74             70                   145 
    210400   0.35734383     0.35954421     0.35458498     0.00029440787  51.457511      2.8926971      0.065336928    74             70                   145 
    210500   0.35829416     0.36050119     0.35552876     0.00029440787  51.59436       2.8933505      0.065336928    74             70                   145 
    210600   0.36377976     0.36602515     0.36097653     0.00029440787  52.384286      2.8940039      0.065336928    74             70                   145 
    210700   0.37089448     0.37318962     0.36804218     0.00029440787  53.408805      2.8946572      0.065336928    74             70                   145 
    210800   0.37806964     0.38041496     0.37516785     0.00029440787  54.442028      2.8953106      0.065336928    74             70                   145 
    210900   0.38379295     0.38617829     0.38085169     0.00029440787  55.266184      2.895964       0.065336928    74             70                   145 
    211000   0.38773598     0.39014889     0.38476753     0.00029440787  55.833981      2.8966173      0.065336928    73             71                   145 
    211100   0.39082476     0.39325928     0.38783501     0.00029440787  56.278766      2.8972707      0.065336928    73             71                   145 
    211200   0.39411086     0.39656835     0.39109844     0.00029440787  56.751964      2.8979241      0.065336928    73             71                   145 
    211300   0.39685883     0.39933554     0.39382746     0.00029440787  57.147671      2.8985774      0.065336928    73             71                   145 
    211400   0.39950789     0.40200312     0.39645825     0.00029440787  57.529136      2.8992308      0.065336928    72             72                   145 
    211500   0.40139293     0.40390135     0.3983303      0.00029440787  57.800582      2.8998842      0.065336928    72             72                   145 
    211600   0.40231282     0.40482767     0.39924384     0.00029440787  57.933046      2.9005376      0.065336928    72             72                   145 
    211700   0.40283239     0.40535087     0.39975983     0.00029440787  58.007864      2.9011909      0.065336928    72             72                   145 
    211800   0.40396518     0.40649159     0.40088481     0.00029440787  58.170986      2.9018443      0.065336928    72             72                   145 
    211900   0.4061105      0.4086519      0.40301533     0.00029440787  58.479911      2.9024977      0.065336928    72             72                   145 
    212000   0.40873299     0.41129274     0.40561973     0.00029440787  58.857551      2.903151       0.065336928    72             72                   145 
    212100   0.41062385     0.41319682     0.40749755     0.00029440787  59.129834      2.9038044      0.065336928    72             72                   145 
    212200   0.41048429     0.41305628     0.40735895     0.00029440787  59.109737      2.9044578      0.065336928    72             72                   145 
    212300   0.40737279     0.40992303     0.40426892     0.00029440787  58.661682      2.9051111      0.065336928    72             72                   145 
    212400   0.40155803     0.4040676      0.39849426     0.00029440787  57.824356      2.9057645      0.065336928    72             72                   145 
    212500   0.39474298     0.39720489     0.3917262      0.00029440787  56.842989      2.9064179      0.065336928    72             72                   145 
    212600   0.38962873     0.39205489     0.38664723     0.00029440787  56.106538      2.9070712      0.065336928    72             72                   145 
    212700   0.38770061     0.39011328     0.38473241     0.00029440787  55.828888      2.9077246      0.065336928    72             72                   145 
    212800   0.38817669     0.39059269     0.38520521     0.00029440787  55.897444      2.908378       0.065336928    72             72                   145 
    212900   0.38978081     0.39220803     0.38679826     0.00029440787  56.128437      2.9090314      0.065336928    72             72                   145 
    213000   0.3920874      0.39453074     0.38908894     0.00029440787  56.460585      2.9096847      0.065336928    72             72                   145 
    213100   0.39514442     0.39760914     0.39212488     0.00029440787  56.900797      2.9103381      0.065336928    72             72                   145 
    213200   0.39880708     0.40129742     0.39576228     0.00029440787  57.42822       2.9109915      0.065336928    72             72                   145 
    213300   0.40271767     0.40523535     0.3996459      0.00029440787  57.991345      2.9116448      0.065336928    72             72                   145 
    213400   0.40639347     0.40893686     0.40329635     0.00029440787  58.52066       2.9122982      0.065336928    72             72                   145 
    213500   0.40999545     0.41256402     0.40687348     0.00029440787  59.039344      2.9129516      0.065336928    72             72                   145 
    213600   0.41364484     0.41623894     0.41049771     0.00029440787  59.564858      2.9136049      0.065336928    72             72                   145 
    213700   0.41738832     0.42000859     0.41421537     0.00029440787  60.103918      2.9142583      0.065336928    72             72                   145 
    213800   0.42125459     0.42390191     0.41805498     0.00029440787  60.660662      2.9149117      0.065336928    72             72                   145 
    213900   0.42512267     0.42779703     0.42189638     0.00029440787  61.217665      2.915565       0.065336928    72             72                   145 
    214000   0.42860629     0.43130501     0.42535597     0.00029440787  61.719306      2.9162184      0.065336928    72             72                   145 
    214100   0.43124889     0.43396609     0.42798035     0.00029440787  62.09984       2.9168718      0.065336928    72             72                   145 
    214200   0.43241203     0.43513737     0.42913547     0.00029440787  62.267333      2.9175252      0.065336928    72             72                   145 
    214300   0.43124917     0.43396637     0.42798063     0.00029440787  62.09988       2.9181785      0.065336928    72             72                   145 
    214400   0.42714484     0.42983334     0.42390461     0.00029440787  61.508857      2.9188319      0.065336928    72             72                   145 
    214500   0.41994807     0.42258625     0.41675747     0.00029440787  60.472522      2.9194853      0.065336928    72             72                   145 
    214600   0.4104523      0.41302407     0.40732718     0.00029440787  59.105131      2.9201386      0.065336928    72             72                   145 
    214700   0.40000742     0.40250615     0.39695434     0.00029440787  57.601069      2.920792       0.065336928    72             72                   145 
    214800   0.39091423     0.39334937     0.38792386     0.00029440787  56.291649      2.9214454      0.065336928    72             72                   145 
    214900   0.38657845     0.38898327     0.38361799     0.00029440787  55.667297      2.9220987      0.065336928    72             72                   145 
    215000   0.38976386     0.39219095     0.38678142     0.00029440787  56.125995      2.9227521      0.065336928    72             72                   145 
    215100   0.39810622     0.40059165     0.39506625     0.00029440787  57.327296      2.9234055      0.065336928    72             72                   145 
    215200   0.40588823     0.40842809     0.40279459     0.00029440787  58.447905      2.9240588      0.065336928    72             72                   145 
    215300   0.40988331     0.4124511      0.40676212     0.00029440787  59.023197      2.9247122      0.065336928    72             72                   145 
    215400   0.41008875     0.41265798     0.40696615     0.00029440787  59.05278       2.9253656      0.065336928    72             72                   145 
    215500   0.40790676     0.41046073     0.4047992      0.00029440787  58.738573      2.926019       0.065336928    72             72                   145 
    215600   0.40485979     0.40739245     0.40177325     0.00029440787  58.29981       2.9266723      0.065336928    72             72                   145 
    215700   0.4020234      0.40453623     0.39895642     0.00029440787  57.891369      2.9273257      0.065336928    72             72                   145 
    215800   0.39986582     0.40236356     0.39681372     0.00029440787  57.580678      2.9279791      0.065336928    72             72                   145 
    215900   0.39840065     0.40088814     0.39535865     0.00029440787  57.369693      2.9286324      0.065336928    72             72                   145 
    216000   0.39757364     0.40005535     0.39453734     0.00029440787  57.250604      2.9292858      0.065336928    72             72                   145 
    216100   0.39738951     0.39986994     0.39435449     0.00029440787  57.22409       2.9299392      0.065336928    72             72                   145 
    216200   0.39818757     0.40067357     0.39514704     0.00029440787  57.33901       2.9305925      0.065336928    72             72                   145 
    216300   0.39934701     0.40184112     0.39629848     0.00029440787  57.505969      2.9312459      0.065336928    73             71                   145 
    216400   0.40030163     0.40280241     0.39724652     0.00029440787  57.643434      2.9318993      0.065336928    73             71                   145 
    216500   0.39929398     0.40178772     0.39624582     0.00029440787  57.498334      2.9325526      0.065336928    73             71                   145 
    216600   0.39585098     0.39832064     0.39282656     0.00029440787  57.002541      2.933206       0.065336928    73             71                   145 
    216700   0.39135825     0.3937965      0.38836482     0.00029440787  56.355588      2.9338594      0.065336928    73             71                   145 
    216800   0.38546774     0.3878648      0.38251494     0.00029440787  55.507355      2.9345128      0.065336928    73             71                   145 
    216900   0.38047115     0.38283326     0.3775528      0.00029440787  54.787846      2.9351661      0.065336928    73             71                   145 
    217000   0.37716767     0.37950668     0.3742721      0.00029440787  54.312144      2.9358195      0.065336928    73             71                   145 
    217100   0.37671226     0.37904808     0.37381983     0.00029440787  54.246565      2.9364729      0.065336928    73             71                   145 
    217200   0.37905212     0.38140431     0.37614356     0.00029440787  54.583506      2.9371262      0.065336928    73             71                   145 
    217300   0.38316955     0.38555053     0.38023259     0.00029440787  55.176415      2.9377796      0.065336928    73             71                   145 
    217400   0.38526402     0.38765964     0.38231261     0.00029440787  55.478018      2.938433       0.065336928    73             71                   145 
    217500   0.38551752     0.38791492     0.38256437     0.00029440787  55.514523      2.9390863      0.065336928    73             71                   145 
    217600   0.38446        0.38685        0.38151414     0.00029440787  55.36224       2.9397397      0.065336928    73             71                   145 
    217700   0.38337566     0.38575809     0.38043728     0.00029440787  55.206095      2.9403931      0.065336928    73             71                   145 
    217800   0.38347366     0.38585677     0.38053461     0.00029440787  55.220207      2.9410464      0.065336928    73             71                   145 
    217900   0.38539804     0.3877946      0.38244571     0.00029440787  55.497317      2.9416998      0.065336928    73             71                   145 
    218000   0.38901159     0.39143342     0.38603434     0.00029440787  56.017669      2.9423532      0.065336928    73             71                   145 
    218100   0.39358387     0.39603768     0.39057509     0.00029440787  56.676077      2.9430066      0.065336928    73             71                   145 
    218200   0.39824324     0.40072963     0.39520233     0.00029440787  57.347027      2.9436599      0.065336928    73             71                   145 
    218300   0.40228714     0.40480181     0.39921834     0.00029440787  57.929348      2.9443133      0.065336928    73             71                   145 
    218400   0.40537392     0.40791017     0.40228383     0.00029440787  58.373844      2.9449667      0.065336928    73             71                   145 
    218500   0.40759184     0.41014361     0.40448646     0.00029440787  58.693225      2.94562        0.065336928    73             71                   145 
    218600   0.40916281     0.41172602     0.40604704     0.00029396302  58.919445      2.9462733      0.065287547    73             71                   145 
    218700   0.4104201      0.412994       0.40729753     0.0002920832   59.100494      2.9469252      0.065078464    73             71                   145 
    218800   0.41148693     0.41407218     0.40836084     0.00028824877  59.254117      2.9475741      0.064649882    72             72                   145 
    218900   0.41201626     0.41461171     0.40889293     0.00028183714  59.330341      2.9482173      0.063926822    72             72                   145 
    219000   0.4117207      0.41432394     0.40860912     0.00027212566  59.287781      2.9488513      0.062815779    72             72                   145 
    219100   0.41006945     0.41267511     0.40698304     0.00025834145  59.05          2.9494719      0.061204175    72             72                   145 
    219200   0.40652307     0.40912276     0.40347969     0.00023977098  58.539322      2.9500733      0.058963372    72             72                   145 
    219300   0.4007082      0.40329138     0.39772875     0.00021595093  57.701981      2.9506486      0.055957918    72             72                   145 
    219400   0.39286683     0.39542459     0.38997046     0.00018694166  56.572823      2.9511895      0.052063942    72             72                   145 
    219500   0.38385515     0.38638367     0.38105424     0.0001536325   55.275141      2.9516867      0.047198212    72             72                   145 
    219600   0.37375152     0.37624557     0.37105597     0.00011794816  53.820218      2.9521302      0.041355149    72             72                   145 
    219700   0.36637444     0.36885258     0.36376496     8.2762771e-05  52.75792       2.9525109      0.034641885    72             72                   145 
    219800   0.363195       0.36568273     0.36063883     5.1379142e-05  52.300081      2.9528209      0.027294644    72             72                   145 
    219900   0.36371941     0.36623587     0.36118434     2.6656876e-05  52.375595      2.9530558      0.019660231    72             72                   145 
    220000   0.36629891     0.36885014     0.36376255     1.0163259e-05  52.747043      2.9532145      0.012139492    72             72                   145 
Loop time of 0.605824 on 1 procs for 200000 steps with 145 atoms

Performance: 2852314.329 tau/day, 330128.973 timesteps/s, 47.869 Matom-step/s
97.1% CPU use with 1 MPI tasks x no OpenMP threads

MPI task timing breakdown:
Section |  min time  |  avg time  |  max time  |%varavg| %total
---------------------------------------------------------------
Pair    | 0.17604    | 0.17604    | 0.17604    |   0.0 | 29.06
Neigh   | 0.0022059  | 0.0022059  | 0.0022059  |   0.0 |  0.36
Comm    | 0.0095561  | 0.0095561  | 0.0095561  |   0.0 |  1.58
Output  | 0.029323   | 0.029323   | 0.029323   |   0.0 |  4.84
Modify  | 0.34258    | 0.34258    | 0.34258    |   0.0 | 56.55
Other   |            | 0.04612    |            |       |  7.61

Nlocal:            145 ave         145 max         145 min
Histogram: 1 0 0 0 0 0 0 0 0 0
Nghost:              0 ave           0 max           0 min
Histogram: 1 0 0 0 0 0 0 0 0 0
Neighs:            245 ave         245 max         245 min
Histogram: 1 0 0 0 0 0 0 0 0 0

Total # of neighbors = 245
Ave neighs/atom = 1.6896552
Neighbor list builds = 270
Dangerous builds = 0

write_data      final_speed_of_sound.data
System init for write_data ...
Generated 0 of 1 mixed pair_coeff terms from geometric mixing rule
WARNING: Not all mixed pair coeffs generated from mixing. Use write_data with 'pair ij' option to store all pair coeffs. (src/write_data.cpp:364)
print           "Complete. Analyze wall_oscillation.dat for frequency."
Complete. Analyze wall_oscillation.dat for frequency.
Total wall time: 0:00:00
